data_urea
_audit_creation_date               2023-07-07
_audit_creation_method
;
Olex2 1.3
(compiled 2020.11.12 svn.r5f609507 for OlexSys, GUI svn.r6408)
;
_shelx_SHELXL_version_number       '2018/3'
_audit_author_address
;
    Prof. Dr. Sir Tonto Magnifico
    1 El Camino Ciberespacio
    Tierra Austral del Espiritu Santo
;
loop_
  _audit_author_name
 'Tonto Magnifico'

_audit_contact_author
;
    Prof. Dr. Sir Tonto Magnifico
;
_audit_contact_author_address      ?
_audit_contact_author_email        ?
_audit_contact_author_name         ''
_audit_contact_author_phone        ?
_publ_contact_author_id_orcid      ?
_publ_requested_journal            IUCrJ
_publ_section_references
;
Dolomanov, O.V., Bourhis, L.J., Gildea, R.J, Howard, J.A.K. & Puschmann, H.
 (2009), J. Appl. Cryst. 42, 339-341.

Sheldrick, G.M. (2015). Acta Cryst. C71, 3-8.
;
_publ_section_title
;
   'Hirshfeld atom-refinement (HAR) for urea'
   'X-ray wavefunction refinement (XWR) for urea'
   Tonto Magnifico, IUCrJ (XXXX)
;
_chemical_name_common              urea
_chemical_name_systematic          ?
_chemical_formula_moiety           '2(C0.5 H2 N O0.5)'
_chemical_formula_sum              'C H4 N2 O'
_chemical_formula_weight           60.06
_chemical_absolute_configuration   ?
_chemical_melting_point            ?
loop_
  _atom_type_symbol
  _atom_type_description
  _atom_type_scat_dispersion_real
  _atom_type_scat_dispersion_imag
  _atom_type_scat_source
 'C' 'C' -0.0018 0.0003 'International Tables Vol C Tables 4.2.6.8 and 6.1.1.4'
 'H' 'H' 0.0000 0.0000 'International Tables Vol C Tables 4.2.6.8 and 6.1.1.4'
 'N' 'N' -0.0029 0.0005 'International Tables Vol C Tables 4.2.6.8 and 6.1.1.4'
 'O' 'O' -0.0035 0.0010 'International Tables Vol C Tables 4.2.6.8 and 6.1.1.4'

_shelx_space_group_comment
;
The symmetry employed for this shelxl refinement is uniquely defined
by the following loop, which should always be used as a source of
symmetry information in preference to the above space-group names.
They are only intended as comments.
;
_space_group_crystal_system        'tetragonal'
_space_group_IT_number             113
_space_group_name_H-M_alt          'P -4 21 m'
_space_group_name_Hall             'P -4 2ab'
loop_
  _space_group_symop_operation_xyz
 'x, y, z'
 'y, -x, -z'
 '-x, -y, z'
 '-y, x, -z'
 'x+1/2, -y+1/2, -z'
 '-x+1/2, y+1/2, -z'
 '-y+1/2, -x+1/2, z'
 'y+1/2, x+1/2, z'

_cell_length_a                     5.578
_cell_length_b                     5.578
_cell_length_c                     4.686
_cell_angle_alpha                  90
_cell_angle_beta                   90
_cell_angle_gamma                  90
_cell_volume                       145.8
_cell_formula_units_Z              2
_cell_measurement_reflns_used      ?
_cell_measurement_temperature      293(2)
_cell_measurement_theta_max        ?
_cell_measurement_theta_min        ?
_shelx_estimated_absorpt_T_max     ?
_shelx_estimated_absorpt_T_min     ?
_exptl_absorpt_coefficient_mu      0.033
_exptl_absorpt_correction_T_max    ?
_exptl_absorpt_correction_T_min    ?
_exptl_absorpt_correction_type     none
_exptl_absorpt_process_details     ?
_exptl_absorpt_special_details     ?
_exptl_crystal_colour              ?
_exptl_crystal_density_diffrn      1.368
_exptl_crystal_density_meas        ?
_exptl_crystal_density_method      ?
_exptl_crystal_description         ?
_exptl_crystal_F_000               64
_exptl_crystal_size_max            ?
_exptl_crystal_size_mid            ?
_exptl_crystal_size_min            ?
_exptl_transmission_factor_max     ?
_exptl_transmission_factor_min     ?
_diffrn_reflns_av_R_equivalents    ?
_diffrn_reflns_av_unetI/netI       0.0060
_diffrn_reflns_Laue_measured_fraction_full  1.000
_diffrn_reflns_Laue_measured_fraction_max  0.735
_diffrn_reflns_limit_h_max         ?
_diffrn_reflns_limit_h_min         ?
_diffrn_reflns_limit_k_max         ?
_diffrn_reflns_limit_k_min         ?
_diffrn_reflns_limit_l_max         ?
_diffrn_reflns_limit_l_min         ?
_diffrn_reflns_number              817
_diffrn_reflns_point_group_measured_fraction_full  0.656
_diffrn_reflns_point_group_measured_fraction_max  0.419
_diffrn_reflns_theta_full          10.975
_diffrn_reflns_theta_max           27.166
_diffrn_reflns_theta_min           1.940
_diffrn_ambient_temperature        293(2)
_diffrn_detector_area_resol_mean   ?
_diffrn_measured_fraction_theta_full  1.000
_diffrn_measured_fraction_theta_max  0.735
_diffrn_measurement_device_type    ?
_diffrn_measurement_method         ?
_diffrn_radiation_type             ?
_diffrn_radiation_wavelength       0.3173
_diffrn_source                     ?
_reflns_Friedel_coverage           0.000
_reflns_Friedel_fraction_full      0.000
_reflns_Friedel_fraction_max       0.000
_reflns_number_gt                  817
_reflns_number_total               817
_reflns_special_details
;
 Reflections were merged by SHELXL according to the crystal
 class for the calculation of statistics and refinement.
 
 _reflns_Friedel_fraction is defined as the number of unique
 Friedel pairs measured divided by the number that would be
 possible theoretically, ignoring centric projections and
 systematic absences.
;
_reflns_threshold_expression       'I > 2\s(I)'
_computing_cell_refinement         ?
_computing_data_collection         ?
_computing_data_reduction          ?
_computing_molecular_graphics      'Olex2 1.3 (Dolomanov et al., 2009)'
_computing_publication_material    'Olex2 1.3 (Dolomanov et al., 2009)'
_computing_structure_refinement    'SHELXL 2018/3 (Sheldrick, 2015)'
_computing_structure_solution      ?
_refine_diff_density_max           0.364
_refine_diff_density_min           -0.205
_refine_diff_density_rms           0.048
_refine_ls_abs_structure_details
;
No quotients, so Flack parameter determined by classical intensity fit
;
_refine_ls_abs_structure_Flack     1(4)
_refine_ls_extinction_coef         .
_refine_ls_extinction_method       none
_refine_ls_goodness_of_fit_ref     1.190
_refine_ls_hydrogen_treatment      refall
_refine_ls_matrix_type             full
_refine_ls_number_parameters       21
_refine_ls_number_reflns           817
_refine_ls_number_restraints       0
_refine_ls_R_factor_all            0.0253
_refine_ls_R_factor_gt             0.0253
_refine_ls_restrained_S_all        1.190
_refine_ls_shift/su_max            0.002
_refine_ls_shift/su_mean           0.000
_refine_ls_structure_factor_coef   Fsqd
_refine_ls_weighting_details      
 'w=1/[\s^2^(Fo^2^)+(0.0420P)^2^+0.0004P] where P=(Fo^2^+2Fc^2^)/3'
_refine_ls_weighting_scheme        calc
_refine_ls_wR_factor_gt            0.0679
_refine_ls_wR_factor_ref           0.0679
_refine_special_details            ?
_olex2_refinement_description
;
;
_atom_sites_solution_hydrogens     difmap
_atom_sites_solution_primary       ?
_atom_sites_solution_secondary     ?
loop_
  _atom_site_label
  _atom_site_type_symbol
  _atom_site_fract_x
  _atom_site_fract_y
  _atom_site_fract_z
  _atom_site_U_iso_or_equiv
  _atom_site_adp_type
  _atom_site_occupancy
  _atom_site_site_symmetry_order
  _atom_site_calc_flag
  _atom_site_refinement_flags_posn
  _atom_site_refinement_flags_adp
  _atom_site_refinement_flags_occupancy
  _atom_site_disorder_assembly
  _atom_site_disorder_group
 O O 0.000000 -0.500000 -0.59644(5) 0.01535(5) Uani 1 4 d S T P . .
 N1 N -0.14490(4) -0.64490(4) -0.17834(6) 0.02261(7) Uani 1 2 d S T P . .
 C C 0.000000 -0.500000 -0.32809(6) 0.01230(4) Uani 1 4 d S T P . .
 H1A H -0.1384(18) -0.6384(18) 0.027(4) 0.032(3) Uiso 1 2 d S . P . .
 H1B H -0.2430(15) -0.7430(15) -0.277(3) 0.032(3) Uiso 1 2 d S . P . .

loop_
  _atom_site_aniso_label
  _atom_site_aniso_U_11
  _atom_site_aniso_U_22
  _atom_site_aniso_U_33
  _atom_site_aniso_U_23
  _atom_site_aniso_U_13
  _atom_site_aniso_U_12
 O 0.01977(7) 0.01977(7) 0.00651(5) 0.000 0.000 0.00213(10)
 N1 0.02915(10) 0.02915(10) 0.00951(6) 0.00008(4) 0.00008(4) -0.01540(11)
 C 0.01496(6) 0.01496(6) 0.00697(6) 0.000 0.000 0.00003(9)

_geom_special_details
;
 All esds (except the esd in the dihedral angle between two l.s. planes)
 are estimated using the full covariance matrix.  The cell esds are taken
 into account individually in the estimation of esds in distances, angles
 and torsion angles; correlations between esds in cell parameters are only
 used when they are defined by crystal symmetry.  An approximate (isotropic)
 treatment of cell esds is used for estimating esds involving l.s. planes.
;
loop_
  _geom_bond_atom_site_label_1
  _geom_bond_atom_site_label_2
  _geom_bond_distance
  _geom_bond_site_symmetry_2
  _geom_bond_publ_flag
 O C 1.2575(4) . ?
 N1 C 1.3413(3) . ?
 N1 H1A 0.964(17) . ?
 N1 H1B 0.900(12) . ?

loop_
  _geom_angle_atom_site_label_1
  _geom_angle_atom_site_label_2
  _geom_angle_atom_site_label_3
  _geom_angle
  _geom_angle_site_symmetry_1
  _geom_angle_site_symmetry_3
  _geom_angle_publ_flag
 C N1 H1A 118.5(8) . . ?
 C N1 H1B 117.7(8) . . ?
 H1A N1 H1B 123.8(11) . . ?
 O C N1 121.545(17) . . ?
 O C N1 121.545(17) . 3_545 ?
 N1 C N1 116.91(3) . 3_545 ?

_shelx_res_file
;
TITL UREA OLEX2: imported from CIF
    urea.res
    created by SHELXL-2018/3 at 15:51:06 on 07-Jul-2023
CELL 0.3173 5.578 5.578 4.686 90 90 90
ZERR 2 0 0 0 0 0 0
LATT -1
SYMM +Y,-X,-Z
SYMM -X,-Y,+Z
SYMM -Y,+X,-Z
SYMM 0.5+X,0.5-Y,-Z
SYMM 0.5-X,0.5+Y,-Z
SYMM 0.5-Y,0.5-X,+Z
SYMM 0.5+Y,0.5+X,+Z
SFAC C H N O
DISP C -0.0018 0.0003 4.1867
DISP H 0 0 0.5804
DISP N -0.0029 0.0005 5.404
DISP O -0.0035 0.001 7.0079
UNIT 2 8 4 2

L.S. 4
PLAN  5
CONF
MORE -1
BOND $H
LIST 4
fmap 2
acta
REM <olex2.extras>
REM <HklSrc "%.\\9227f0b687f2fa0fd5b0112ee18e1001.hkl">
REM </olex2.extras>

WGHT    0.042000    0.000400
FVAR       0.99946
O     4    0.000000   -0.500000   -0.596440    10.25000    0.01977    0.01977 =
         0.00651    0.00000    0.00000    0.00213
N1    3   -0.144904   -0.644904   -0.178342    10.50000    0.02915    0.02915 =
         0.00951    0.00008    0.00008   -0.01540
C     1    0.000000   -0.500000   -0.328090    10.25000    0.01496    0.01496 =
         0.00697    0.00000    0.00000    0.00003
H1A   2   -0.138446   -0.638446    0.027031    10.50000    0.03234
H1B   2   -0.242988   -0.742988   -0.276554    10.50000    0.03170
HKLF 4




REM  UREA OLEX2: imported from CIF
REM wR2 = 0.0679, GooF = S = 1.190, Restrained GooF = 1.190 for all data
REM R1 = 0.0253 for 817 Fo > 4sig(Fo) and 0.0253 for all 817 data
REM 21 parameters refined using 0 restraints

END

WGHT      0.0421      0.0004

REM Highest difference peak  0.364,  deepest hole -0.205,  1-sigma level  0.048
Q1    1   0.0000 -0.5000 -0.4561  10.25000  0.05    0.36
Q2    1  -0.0850 -0.6739 -0.2128  11.00000  0.05    0.23
Q3    1   0.0671 -0.4329 -0.2443  10.50000  0.05    0.21
Q4    1   0.0868 -0.4951 -0.6455  11.00000  0.05    0.18
Q5    1  -0.1492 -0.6492 -0.0548  10.50000  0.05    0.17
;
_shelx_res_checksum                60245
_shelx_hkl_file
;
   1   1   0  970.45    1.84
   0   2   0  150.08    0.28
   1   2   0  218.39    0.29
   2   2   0  218.85    0.40
   1   3   0   28.03    0.11
   2   3   0   16.75    0.08
   3   3   0  211.26    0.59
   0   4   0    5.31    0.06
   1   4   0    6.87    0.05
   2   4   0   89.89    0.21
   3   4   0    3.14    0.04
   4   4   0   79.92    0.37
   1   5   0   40.70    0.15
   2   5   0   20.63    0.09
   3   5   0   41.57    0.16
   4   5   0    2.78    0.03
   5   5   0    6.51    0.07
   0   6   0   59.25    0.39
   1   6   0    5.12    0.05
   2   6   0   22.60    0.11
   4   6   0    2.37    0.03
   5   6   0    4.01    0.04
   6   6   0    8.19    0.10
   1   7   0   30.31    0.17
   2   7   0    0.26    0.01
   3   7   0    1.32    0.03
   4   7   0    0.96    0.03
   5   7   0    5.61    0.06
   6   7   0    0.50    0.02
   0   8   0   16.56    0.13
   1   8   0    1.45    0.03
   2   8   0    4.50    0.05
   3   8   0    1.09    0.03
   4   8   0    4.00    0.05
   5   8   0    0.95    0.03
   6   8   0    8.10    0.08
   7   8   0    0.14    0.02
   8   8   0    0.85    0.04
   1   9   0    3.46    0.04
   2   9   0    1.34    0.03
   3   9   0    5.07    0.06
   4   9   0    0.40    0.02
   5   9   0    6.05    0.07
   6   9   0    0.17    0.01
   7   9   0    0.78    0.03
   8   9   0    0.56    0.02
   9   9   0    0.11    0.02
   0  10   0    0.89    0.04
   1  10   0    0.10    0.01
   2  10   0    3.25    0.05
   3  10   0    0.07    0.02
   4  10   0    4.90    0.07
   5  10   0    0.06    0.01
   6  10   0    0.57    0.02
   7  10   0    0.35    0.02
   8  10   0    0.10    0.02
  10  10   0    0.57    0.04
   1  11   0    1.28    0.03
   2  11   0    0.12    0.02
   3  11   0    2.69    0.04
   5  11   0    0.61    0.03
   6  11   0    0.25    0.01
   7  11   0    0.12    0.02
   9  11   0    0.51    0.02
   0  12   0    0.96    0.04
   2  12   0    1.13    0.03
   4  12   0    0.45    0.02
   5  12   0    0.12    0.02
   6  12   0    0.14    0.01
   8  12   0    0.41    0.02
   1  13   0    0.65    0.03
   3  13   0    0.23    0.01
   5  13   0    0.12    0.01
   7  13   0    0.26    0.01
   0  14   0    0.32    0.02
   2  14   0    0.17    0.01
   4  14   0    0.07    0.01
   6  14   0    0.16    0.01
   0   0   1   12.92    0.07
   0   1   1  144.29    0.24
   1   1   1  272.81    0.49
  -2   2   1  192.35    0.38
   0   2   1  190.29    0.27
   1   2   1   47.71    0.14
  -2   3   1    4.95    0.04
   0   3   1   89.90    0.19
   1   3   1  137.01    0.24
   3   3   1    7.82    0.06
  -4   4   1    4.58    0.05
  -2   4   1   24.75    0.10
   0   4   1   93.95    0.23
   1   4   1   11.22    0.07
   3   4   1   19.83    0.09
  -4   5   1    0.46    0.02
  -2   5   1    6.94    0.05
   0   5   1    0.10    0.01
   1   5   1   29.21    0.11
   3   5   1   11.42    0.07
   5   5   1   15.06    0.13
  -6   6   1    2.63    0.05
  -4   6   1   12.98    0.07
  -2   6   1   13.26    0.07
   0   6   1    4.31    0.04
   1   6   1    5.47    0.05
   3   6   1    0.85    0.02
   5   6   1    0.82    0.03
  -7   7   1    1.25    0.05
  -6   7   1    2.13    0.04
  -4   7   1    1.30    0.03
   0   7   1    8.21    0.07
   1   7   1    3.07    0.04
   3   7   1   10.32    0.08
   5   7   1    3.06    0.04
  -7   8   1    0.54    0.02
  -5   8   1    1.30    0.03
  -4   8   1    2.82    0.04
  -2   8   1    6.32    0.06
   0   8   1    2.19    0.04
   1   8   1    0.93    0.03
   3   8   1    0.37    0.01
   6   8   1    1.44    0.03
   8   8   1    0.83    0.04
  -8   9   1    0.16    0.01
  -7   9   1    0.87    0.03
  -6   9   1    0.40    0.02
  -5   9   1    1.30    0.03
  -3   9   1    1.57    0.03
  -2   9   1    0.23    0.01
   1   9   1    3.49    0.04
   4   9   1    1.03    0.03
   9   9   1    0.64    0.04
  -8  10   1    0.49    0.02
  -3  10   1    0.84    0.03
   0  10   1    2.18    0.04
   2  10   1    1.03    0.03
   4  10   1    0.59    0.02
   5  10   1    0.33    0.01
   6  10   1    0.68    0.03
   7  10   1    0.12    0.02
  10  10   1    0.12    0.02
  -9  11   1    0.10    0.01
  -6  11   1    0.08    0.01
  -5  11   1    0.50    0.02
  -4  11   1    0.23    0.01
  -3  11   1    0.42    0.02
  -2  11   1    0.24    0.01
  -1  11   1    0.88    0.03
   7  11   1    0.39    0.02
  10  11   1    0.11    0.01
  -9  12   1    0.06    0.02
  -6  12   1    0.26    0.01
   0  12   1    0.35    0.02
   1  12   1    0.08    0.02
   2  12   1    0.34    0.01
   3  12   1    0.09    0.01
   4  12   1    0.27    0.01
   8  12   1    0.06    0.01
  -7  13   1    0.05    0.01
  -5  13   1    0.16    0.01
   0  13   1    0.08    0.02
   1  13   1    0.15    0.01
   3  13   1    0.19    0.01
   8  13   1    0.06    0.01
   2  14   1    0.10    0.02
   4  14   1    0.07    0.02
   0   0   2  129.77    0.79
  -1   1   2   50.94    0.14
   0   1   2  147.44    0.26
   0   2   2    7.99    0.06
   1   2   2   29.10    0.11
   2   2   2   52.74    0.16
  -3   3   2    7.66    0.06
  -2   3   2   10.60    0.07
  -1   3   2   14.32    0.08
   0   3   2   17.16    0.08
   0   4   2    7.40    0.05
   1   4   2    2.65    0.03
   2   4   2    5.24    0.05
   3   4   2   18.04    0.09
   4   4   2    3.86    0.05
  -5   5   2    4.82    0.04
  -4   5   2    0.67    0.02
  -3   5   2    2.17    0.03
  -2   5   2    7.14    0.05
  -1   5   2    7.96    0.06
   0   5   2    0.09    0.02
   0   6   2    2.46    0.03
   1   6   2    4.53    0.04
   2   6   2    2.74    0.03
   3   6   2    0.88    0.02
   4   6   2    2.53    0.03
   5   6   2    1.51    0.03
   6   6   2    0.41    0.02
  -5   7   2    0.10    0.02
  -4   7   2    1.75    0.03
  -3   7   2    1.39    0.03
  -2   7   2    0.16    0.01
  -1   7   2    1.39    0.02
   0   7   2    4.95    0.04
   6   7   2    1.06    0.03
   7   7   2    1.33    0.05
  -8   8   2    0.15    0.02
  -6   8   2    1.15    0.03
  -5   8   2    0.70    0.03
   0   8   2    0.78    0.03
   1   8   2    0.60    0.02
   2   8   2    1.50    0.03
   3   8   2    0.84    0.03
   7   8   2    0.21    0.01
  -9   9   2    0.16    0.02
  -8   9   2    0.38    0.02
  -6   9   2    0.15    0.01
   0   9   2    0.09    0.02
   1   9   2    0.62    0.02
   2   9   2    0.40    0.01
   3   9   2    0.19    0.01
   4   9   2    0.46    0.02
   5   9   2    0.94    0.03
  -4  10   2    0.48    0.02
  -2  10   2    0.08    0.03
  -1  10   2    0.20    0.01
   3  10   2    0.31    0.01
   5  10   2    0.10    0.02
   7  10   2    0.31    0.01
   8  10   2    0.16    0.01
  -7  11   2    0.09    0.01
   0  11   2    0.08    0.02
   3  11   2    0.22    0.01
   6  11   2    0.20    0.01
   9  11   2    0.06    0.02
  10  11   2    0.06    0.01
  -8  12   2    0.09    0.02
  -5  12   2    0.09    0.02
  -2  12   2    0.12    0.02
   0   0   3   13.12    0.08
   0   1   3   84.44    0.19
   1   1   3   11.17    0.07
  -2   2   3   26.51    0.11
   0   2   3   47.80    0.14
   1   2   3   66.07    0.16
  -2   3   3   24.69    0.10
   0   3   3   11.19    0.07
   1   3   3   63.72    0.17
   3   3   3    0.49    0.03
  -4   4   3    0.16    0.01
  -2   4   3    4.07    0.04
   0   4   3   69.22    0.25
   1   4   3   12.64    0.07
   3   4   3   16.18    0.08
  -4   5   3    5.52    0.05
  -2   5   3   20.57    0.10
   0   5   3    8.20    0.06
   1   5   3    9.85    0.06
   3   5   3    3.26    0.04
   5   5   3    9.89    0.11
  -6   6   3    1.70    0.05
  -4   6   3   14.25    0.10
  -2   6   3    5.98    0.05
   0   6   3    0.23    0.01
   1   6   3   10.14    0.07
   3   6   3    2.77    0.03
   5   6   3    3.90    0.04
  -5   7   3    2.75    0.04
  -4   7   3    1.63    0.03
  -2   7   3    2.62    0.03
   0   7   3    5.07    0.05
   1   7   3    0.59    0.02
   3   7   3   13.50    0.10
   6   7   3    2.07    0.04
  -5   8   3    2.13    0.04
  -2   8   3    4.95    0.05
   0   8   3    0.77    0.03
   1   8   3    3.06    0.04
   3   8   3    1.77    0.03
   4   8   3    2.85    0.04
   7   8   3    0.76    0.03
   8   8   3    0.92    0.05
  -8   9   3    0.37    0.02
  -7   9   3    0.96    0.03
  -6   9   3    0.74    0.03
  -5   9   3    0.06    0.02
  -3   9   3    1.10    0.03
  -1   9   3    3.01    0.04
   0   9   3    0.98    0.04
   2   9   3    1.83    0.03
   4   9   3    1.34    0.03
   9   9   3    0.76    0.04
  -9  10   3    0.07    0.02
  -8  10   3    0.71    0.03
  -1  10   3    0.59    0.02
   0  10   3    3.01    0.05
   2  10   3    0.82    0.03
   3  10   3    0.82    0.03
   5  10   3    0.46    0.02
   6  10   3    0.82    0.03
   7  10   3    0.30    0.01
  -5  11   3    0.50    0.02
  -4  11   3    0.30    0.01
  -3  11   3    0.09    0.02
  -2  11   3    0.49    0.02
  -1  11   3    0.92    0.03
   0  11   3    0.31    0.02
   6  11   3    0.23    0.01
   7  11   3    0.50    0.02
   8  11   3    0.07    0.02
  10  11   3    0.08    0.02
  -9  12   3    0.07    0.02
  -7  12   3    0.06    0.01
  -5  12   3    0.13    0.01
  -4  12   3    0.30    0.01
  -3  12   3    0.17    0.01
   0  12   3    0.32    0.02
   1  12   3    0.27    0.01
   2  12   3    0.17    0.01
   6  12   3    0.36    0.02
  -5  13   3    0.18    0.01
  -3  13   3    0.21    0.01
   0  13   3    0.12    0.02
   1  13   3    0.10    0.01
   2  13   3    0.09    0.02
   4  13   3    0.07    0.01
  -4  14   3    0.11    0.02
   2  14   3    0.09    0.02
   0   0   4   28.71    0.18
  -1   1   4   41.85    0.18
   0   1   4    2.14    0.03
   0   2   4   19.39    0.09
   1   2   4   43.65    0.14
   2   2   4   41.84    0.21
  -3   3   4   15.20    0.11
  -2   3   4   13.16    0.07
  -1   3   4   13.97    0.08
   0   3   4  101.01    0.36
   0   4   4    5.70    0.05
   1   4   4   41.40    0.17
   2   4   4   15.98    0.09
   3   4   4    0.29    0.02
   4   4   4    8.37    0.06
  -5   5   4    6.70    0.09
  -4   5   4    8.14    0.07
  -3   5   4    8.20    0.06
  -2   5   4    7.30    0.05
  -1   5   4   14.89    0.09
   0   5   4   17.31    0.11
  -6   6   4    1.87    0.05
   0   6   4    7.48    0.07
   1   6   4    2.81    0.03
   2   6   4    7.29    0.06
   3   6   4   14.64    0.11
   4   6   4    3.32    0.04
   5   6   4    8.98    0.08
  -3   7   4    1.77    0.03
  -2   7   4    8.03    0.07
  -1   7   4    4.43    0.05
   0   7   4    0.18    0.01
   4   7   4   11.16    0.10
   5   7   4    1.37    0.03
   6   7   4    0.34    0.01
   7   7   4    1.86    0.06
  -8   8   4    0.33    0.02
  -6   8   4    1.90    0.04
  -5   8   4    0.76    0.03
  -4   8   4    1.08    0.03
  -3   8   4    6.77    0.07
  -2   8   4    2.95    0.04
  -1   8   4    2.81    0.04
   0   8   4    2.64    0.04
   7   8   4    0.33    0.02
  -6   9   4    0.48    0.02
  -4   9   4    0.52    0.02
   0   9   4    3.74    0.06
   1   9   4    1.61    0.03
   2   9   4    3.01    0.04
   3   9   4    1.02    0.03
   5   9   4    1.54    0.04
   7   9   4    0.28    0.01
   8   9   4    1.37    0.04
   9   9   4    0.22    0.02
 -10  10   4    0.13    0.02
  -9  10   4    0.17    0.01
  -8  10   4    0.16    0.01
  -7  10   4    1.24    0.03
  -6  10   4    0.23    0.01
  -4  10   4    0.97    0.03
  -2  10   4    0.74    0.03
   0  10   4    0.45    0.02
   1  10   4    2.61    0.04
   3  10   4    0.30    0.01
   5  10   4    0.36    0.02
  -9  11   4    0.13    0.02
  -5  11   4    0.22    0.01
  -4  11   4    0.26    0.01
  -3  11   4    0.52    0.03
  -2  11   4    0.40    0.02
   0  11   4    1.49    0.04
   1  11   4    0.36    0.01
   6  11   4    0.84    0.03
   7  11   4    0.12    0.01
   8  11   4    0.16    0.01
  -7  12   4    0.13    0.01
  -6  12   4    0.07    0.02
  -5  12   4    0.53    0.02
  -3  12   4    0.26    0.01
  -1  12   4    0.36    0.02
   0  12   4    0.20    0.01
   2  12   4    0.28    0.01
   4  12   4    0.14    0.01
   8  12   4    0.09    0.02
   0  13   4    0.11    0.01
   1  13   4    0.13    0.01
   2  13   4    0.16    0.01
   4  13   4    0.29    0.01
   6  13   4    0.08    0.02
  -3  14   4    0.11    0.02
   0  14   4    0.08    0.02
   0   0   5   47.22    0.35
   0   1   5   18.37    0.10
   1   1   5   16.37    0.11
  -2   2   5    9.42    0.08
   0   2   5    0.54    0.03
   1   2   5   13.08    0.07
  -2   3   5    7.35    0.05
   0   3   5    0.35    0.02
   1   3   5    1.61    0.03
   3   3   5   12.88    0.08
  -4   4   5    5.38    0.07
  -2   4   5    5.11    0.05
   0   4   5    2.51    0.04
   1   4   5    1.46    0.03
   3   4   5   12.77    0.09
  -4   5   5    2.50    0.04
  -2   5   5    8.83    0.07
   0   5   5    1.82    0.03
   1   5   5    3.27    0.04
   3   5   5    2.34    0.03
   5   5   5    1.61    0.05
  -5   6   5    1.48    0.03
  -2   6   5    1.49    0.03
   0   6   5    4.23    0.05
   1   6   5    6.21    0.06
   3   6   5    0.31    0.01
   4   6   5    0.84    0.03
   6   6   5    0.27    0.02
  -7   7   5    1.07    0.05
  -6   7   5    1.80    0.04
  -5   7   5    0.08    0.02
  -3   7   5    0.63    0.03
   0   7   5    6.05    0.07
   1   7   5    1.98    0.03
   2   7   5    0.83    0.03
   4   7   5    0.33    0.01
  -3   8   5    0.50    0.02
  -1   8   5    1.90    0.03
   0   8   5    0.87    0.03
   2   8   5    0.54    0.02
   5   8   5    1.30    0.03
   6   8   5    0.98    0.03
   7   8   5    0.63    0.03
  -6   9   5    0.43    0.02
  -5   9   5    0.63    0.03
  -4   9   5    1.00    0.03
  -3   9   5    0.11    0.01
  -2   9   5    0.76    0.03
  -1   9   5    0.25    0.01
   0   9   5    0.33    0.02
   8   9   5    0.20    0.01
  -7  10   5    0.13    0.01
   1  10   5    0.13    0.01
   2  10   5    0.06    0.01
   3  10   5    0.75    0.03
   4  10   5    0.38    0.02
   5  10   5    0.35    0.02
  -7  11   5    0.08    0.02
  -2  11   5    0.36    0.01
   3  11   5    0.18    0.01
   4  11   5    0.25    0.01
   6  11   5    0.09    0.02
  -3  12   5    0.14    0.02
  -1  12   5    0.16    0.01
   0  13   5    0.09    0.02
   0   0   6   15.21    0.18
  -1   1   6    2.86    0.03
   0   1   6    0.51    0.03
   0   2   6    1.41    0.02
   1   2   6   13.40    0.09
   2   2   6    2.66    0.05
  -3   3   6    5.38    0.07
  -2   3   6    2.93    0.04
  -1   3   6    5.04    0.05
   0   3   6   10.48    0.09
   0   4   6    7.51    0.07
   1   4   6    5.53    0.05
   2   4   6    1.09    0.03
   3   4   6    1.11    0.03
   4   4   6    2.48    0.05
  -3   5   6    0.55    0.02
  -2   5   6    5.96    0.06
  -1   5   6    0.74    0.03
   0   5   6    1.91    0.04
   4   5   6    1.52    0.03
   5   5   6    0.78    0.04
  -5   6   6    2.02    0.04
  -4   6   6    1.26    0.03
  -3   6   6    1.70    0.03
  -2   6   6    0.29    0.01
  -1   6   6    1.84    0.03
   0   6   6    1.88    0.04
  -6   7   6    0.31    0.01
  -4   7   6    1.41    0.03
   1   7   6    0.98    0.03
   2   7   6    0.92    0.03
   3   7   6    1.30    0.03
   7   7   6    0.84    0.04
  -7   8   6    0.14    0.02
  -6   8   6    0.57    0.02
  -4   8   6    0.08    0.02
  -2   8   6    0.25    0.01
   0   8   6    0.49    0.02
   1   8   6    0.76    0.03
   3   8   6    1.06    0.03
   5   8   6    0.57    0.03
  -4   9   6    0.27    0.01
  -2   9   6    0.79    0.03
   0   9   6    0.43    0.02
   5   9   6    0.36    0.01
   6   9   6    0.16    0.01
   8   9   6    0.27    0.01
  -7  10   6    0.18    0.01
  -5  10   6    0.09    0.02
   0  10   6    0.18    0.01
   1  10   6    0.32    0.01
   3  10   6    0.10    0.02
   4  10   6    0.29    0.01
  -3  11   6    0.15    0.01
   0  11   6    0.13    0.02
   2  11   6    0.10    0.02
   6  11   6    0.16    0.01
  -3  12   6    0.07    0.02
   0   0   7    0.26    0.03
   0   1   7   41.66    0.32
   1   1   7    5.48    0.07
  -2   2   7    9.71    0.12
   0   2   7    0.26    0.01
   1   2   7   10.40    0.09
  -3   3   7    0.15    0.02
  -2   3   7   15.54    0.13
   0   3   7    0.48    0.02
   1   3   7    1.48    0.03
  -3   4   7   23.20    0.20
  -1   4   7    3.28    0.04
   0   4   7    0.16    0.01
   2   4   7    1.63    0.03
   4   4   7    0.11    0.02
  -5   5   7    2.34    0.06
  -3   5   7    0.78    0.03
  -1   5   7    2.92    0.04
   0   5   7    6.12    0.07
   2   5   7    9.86    0.10
   4   5   7    4.91    0.06
  -3   6   7    1.72    0.03
  -1   6   7   10.51    0.10
   2   6   7    1.26    0.03
   4   6   7    0.88    0.03
   5   6   7    1.24    0.03
   6   6   7    0.16    0.02
  -6   7   7    3.42    0.05
  -4   7   7    0.43    0.02
  -3   7   7    0.30    0.01
  -2   7   7    2.50    0.04
  -1   7   7    0.08    0.02
   0   7   7   11.53    0.14
   7   7   7    0.27    0.02
  -7   8   7    1.22    0.03
  -6   8   7    0.30    0.02
   1   8   7    3.39    0.05
   2   8   7    0.79    0.03
   3   8   7    0.78    0.03
   5   8   7    2.28    0.04
  -2   9   7    1.14    0.03
  -1   9   7    0.31    0.01
   0   9   7    1.11    0.04
   4   9   7    1.96    0.04
   5   9   7    0.26    0.01
   6   9   7    0.91    0.03
  -8  10   7    0.05    0.01
  -5  10   7    0.76    0.03
  -3  10   7    1.49    0.04
  -1  10   7    0.48    0.02
   4  10   7    0.08    0.02
   0  11   7    0.26    0.01
   2  11   7    0.72    0.03
   4  11   7    0.52    0.03
  -3  12   7    0.27    0.01
  -1  12   7    0.35    0.02
   0  13   7    0.20    0.01
   0   0   8   14.20    0.25
   0   1   8    5.92    0.07
   1   1   8    4.33    0.07
  -2   2   8    1.78    0.05
  -1   2   8   14.38    0.13
   0   3   8   15.00    0.16
   1   3   8    0.46    0.02
   2   3   8    6.79    0.07
   3   3   8    5.43    0.09
  -4   4   8    2.86    0.06
  -2   4   8    1.80    0.04
  -1   4   8    9.74    0.10
   0   4   8    1.08    0.04
   3   4   8    2.93    0.04
  -4   5   8    3.48    0.05
  -2   5   8    6.38    0.07
   0   5   8    5.75    0.08
   1   5   8    0.80    0.03
   3   5   8    1.03    0.03
   5   5   8    0.25    0.02
  -4   6   8    0.16    0.01
  -2   6   8    0.58    0.02
   0   6   8    2.27    0.05
   1   6   8    3.19    0.05
   3   6   8    4.18    0.06
   5   6   8    3.02    0.05
   6   6   8    0.23    0.02
  -5   7   8    0.09    0.02
  -4   7   8    2.93    0.05
  -2   7   8    2.84    0.04
   0   7   8    1.19    0.04
   1   7   8    1.20    0.03
   3   7   8    0.18    0.01
   6   7   8    0.69    0.03
   7   7   8    0.68    0.04
  -7   8   8    0.34    0.01
  -6   8   8    0.54    0.02
  -5   8   8    0.85    0.03
  -3   8   8    2.01    0.04
  -2   8   8    0.12    0.01
   0   8   8    0.64    0.03
   1   8   8    1.60    0.04
   4   8   8    0.05    0.01
  -3   9   8    0.12    0.01
   0   9   8    1.29    0.04
   2   9   8    1.20    0.03
   4   9   8    0.60    0.03
   5   9   8    0.36    0.02
   6   9   8    0.38    0.01
   8   9   8    0.36    0.02
  -7  10   8    0.32    0.01
  -5  10   8    0.26    0.01
  -4  10   8    0.26    0.01
  -3  10   8    0.28    0.01
  -2  10   8    0.08    0.01
  -1  10   8    0.86    0.03
   0  11   8    0.48    0.02
   2  11   8    0.27    0.01
   3  11   8    0.11    0.01
   4  11   8    0.15    0.01
  -1  12   8    0.18    0.01
   2  12   8    0.06    0.01
   0   0   9    3.52    0.09
  -1   1   9    1.27    0.05
   0   2   9    0.35    0.02
   1   2   9    3.19    0.05
   2   2   9    1.61    0.05
  -3   3   9    0.95    0.05
  -2   3   9    0.66    0.03
  -1   3   9    1.43    0.03
   0   3   9    4.10    0.06
   0   4   9    2.05    0.04
   1   4   9    1.80    0.04
   2   4   9    0.37    0.02
   3   4   9    0.21    0.01
   4   4   9    0.44    0.02
  -4   5   9    0.44    0.02
  -3   5   9    0.18    0.01
  -2   5   9    1.31    0.03
  -1   5   9    0.57    0.02
   0   5   9    0.53    0.03
   5   5   9    0.49    0.03
  -5   6   9    0.74    0.03
  -4   6   9    0.60    0.03
   0   6   9    0.26    0.01
   1   6   9    0.36    0.02
   2   6   9    0.25    0.01
   3   6   9    0.58    0.02
  -7   7   9    0.16    0.02
   1   7   9    0.10    0.01
   2   7   9    0.26    0.01
   3   7   9    0.56    0.03
   4   7   9    0.53    0.02
  -5   8   9    0.08    0.02
  -3   8   9    0.35    0.02
  -2   8   9    0.19    0.01
  -1   8   9    0.21    0.01
   6   8   9    0.13    0.01
  -1   9   9    0.07    0.01
   0   9   9    0.12    0.02
   2   9   9    0.22    0.01
  -1  10   9    0.07    0.02
   0  10   9    0.10    0.02
   0   0  10    2.80    0.09
   0   1  10    0.18    0.01
   1   1  10    3.14    0.07
  -2   2  10    3.53    0.07
   0   2  10    1.03    0.04
   1   2  10    1.16    0.03
  -2   3  10    0.12    0.02
   0   3  10    4.66    0.07
   1   3  10    1.04    0.03
   3   3  10    1.45    0.05
  -3   4  10    0.25    0.01
  -2   4  10    1.38    0.03
   0   4  10    0.40    0.02
   1   4  10    1.75    0.04
   4   4  10    0.71    0.04
  -3   5  10    0.82    0.03
  -1   5  10    1.51    0.04
   0   5  10    0.51    0.03
   2   5  10    0.12    0.01
   4   5  10    0.25    0.01
   5   5  10    0.78    0.04
  -6   6  10    0.20    0.02
  -5   6  10    0.47    0.02
  -4   6  10    0.38    0.02
  -3   6  10    0.76    0.03
   0   6  10    0.71    0.03
   2   6  10    0.80    0.03
  -7   7  10    0.20    0.02
   0   7  10    0.09    0.02
   1   7  10    0.39    0.02
   2   7  10    0.37    0.01
   3   7  10    0.26    0.01
   4   7  10    0.75    0.03
   5   7  10    0.15    0.01
  -6   8  10    0.24    0.02
  -4   8  10    0.17    0.01
  -3   8  10    0.39    0.02
  -2   8  10    0.37    0.02
   0   8  10    0.25    0.01
  -3   9  10    0.09    0.02
  -1   9  10    0.20    0.01
   0   9  10    0.19    0.01
   2   9  10    0.11    0.01
   5   9  10    0.19    0.02
  -4  10  10    0.10    0.02
  -1  10  10    0.17    0.02
   0   1  11    1.38    0.04
   1   1  11    1.59    0.05
  -2   2  11    2.68    0.06
  -1   2  11    1.83    0.04
   0   2  11    4.18    0.07
  -3   3  11    0.30    0.02
   0   3  11    0.39    0.02
   1   3  11    5.22    0.07
   2   3  11    0.91    0.03
  -3   4  11    1.01    0.03
  -1   4  11    0.55    0.02
   0   4  11    5.79    0.08
   2   4  11    1.16    0.03
   4   4  11    0.34    0.02
  -5   5  11    1.36    0.05
  -3   5  11    0.78    0.03
  -1   5  11    1.70    0.04
   0   5  11    0.43    0.02
   2   5  11    1.21    0.03
   4   5  11    0.46    0.02
  -5   6  11    0.26    0.01
  -4   6  11    1.65    0.04
  -3   6  11    0.22    0.01
  -1   6  11    0.70    0.03
   0   6  11    0.42    0.02
   2   6  11    1.13    0.03
   6   6  11    0.36    0.03
  -5   7  11    0.46    0.02
  -1   7  11    0.34    0.01
   0   7  11    0.46    0.02
   2   7  11    0.22    0.01
   3   7  11    1.57    0.03
   4   7  11    0.14    0.01
   6   7  11    0.19    0.01
  -3   8  11    0.14    0.01
  -2   8  11    0.76    0.03
  -1   8  11    0.26    0.01
   0   8  11    0.28    0.01
   4   8  11    0.47    0.02
  -1   9  11    0.44    0.02
   0   9  11    0.09    0.01
   2   9  11    0.13    0.01
   0   0  12    3.67    0.10
   0   1  12    1.22    0.04
   1   1  12    2.38    0.06
  -2   2  12    1.69    0.05
  -1   2  12    0.40    0.02
   0   2  12    1.03    0.04
   1   3  12    0.57    0.02
   2   3  12    0.39    0.02
   3   3  12    1.90    0.05
  -3   4  12    0.71    0.03
   0   4  12    0.23    0.01
   2   4  12    1.19    0.03
   4   4  12    1.14    0.04
  -3   5  12    0.69    0.03
  -2   5  12    0.39    0.01
  -1   5  12    0.78    0.03
   0   5  12    0.08    0.02
   4   5  12    0.11    0.01
   5   5  12    0.36    0.03
  -4   6  12    0.18    0.01
  -2   6  12    0.53    0.03
   0   6  12    0.98    0.03
   1   6  12    0.30    0.01
   0   7  12    0.29    0.02
   1   7  12    0.64    0.03
   0   0  13    0.18    0.02
  -1   1  13    0.23    0.02
  -1   2  13    0.21    0.01
   2   2  13    0.37    0.02
   0   3  13    0.63    0.03
  -1   4  13    0.23    0.01
   0   0   0    0.00    0.00
;
_shelx_hkl_checksum                10205
_olex2_submission_special_instructions  'No special instructions were received'
