 
data_shelx
 
_audit_creation_method            'SHELXL-2018/3'
_shelx_SHELXL_version_number      '2018/3'
_chemical_name_systematic         ?
_chemical_name_common             ?
_chemical_melting_point           ?
_chemical_formula_moiety          ?
_chemical_formula_sum
 'C3 H7 N O2 S' 
_chemical_formula_weight          121.16

loop_
 _atom_type_symbol
 _atom_type_description
 _atom_type_scat_dispersion_real
 _atom_type_scat_dispersion_imag
 _atom_type_scat_source
 'C'  'C'   0.0000   0.0000
 'International Tables Vol C Tables 4.2.6.8 and 6.1.1.4'
 'H'  'H'   0.0000   0.0000
 'International Tables Vol C Tables 4.2.6.8 and 6.1.1.4'
 'N'  'N'   0.0000   0.0000
 'International Tables Vol C Tables 4.2.6.8 and 6.1.1.4'
 'O'  'O'   0.0000   0.0000
 'International Tables Vol C Tables 4.2.6.8 and 6.1.1.4'
 'S'  'S'   0.0000   0.0000
 'International Tables Vol C Tables 4.2.6.8 and 6.1.1.4'
 
_space_group_crystal_system       orthorhombic
_space_group_IT_number            19
_space_group_name_H-M_alt         'P 21 21 21'
_space_group_name_Hall            'P 2ac 2ab'
 
_shelx_space_group_comment
;
The symmetry employed for this shelxl refinement is uniquely defined
by the following loop, which should always be used as a source of
symmetry information in preference to the above space-group names.
They are only intended as comments.
;
 
loop_
 _space_group_symop_operation_xyz
 'x, y, z'
 '-x+1/2, -y, z+1/2'
 '-x, y+1/2, -z+1/2'
 'x+1/2, -y+1/2, -z'
 
_cell_length_a                    5.4128(4)
_cell_length_b                    8.1470(7)
_cell_length_c                    11.9744(11)
_cell_angle_alpha                 90
_cell_angle_beta                  90
_cell_angle_gamma                 90
_cell_volume                      528.05(8)
_cell_formula_units_Z             4
_cell_measurement_temperature     100(2)
_cell_measurement_reflns_used     ?
_cell_measurement_theta_min       ?
_cell_measurement_theta_max       ?
 
_exptl_crystal_description        ?
_exptl_crystal_colour             ?
_exptl_crystal_density_meas       ?
_exptl_crystal_density_method     ?
_exptl_crystal_density_diffrn     1.524          
_exptl_crystal_F_000              256
_exptl_transmission_factor_min    ?
_exptl_transmission_factor_max    ?
_exptl_crystal_size_max           ?
_exptl_crystal_size_mid           ?
_exptl_crystal_size_min           ?
_exptl_absorpt_coefficient_mu     0.490
_shelx_estimated_absorpt_T_min    ?
_shelx_estimated_absorpt_T_max    ?
_exptl_absorpt_correction_type    ?
_exptl_absorpt_correction_T_min   ?
_exptl_absorpt_correction_T_max   ?
_exptl_absorpt_process_details    ?
_exptl_absorpt_special_details    ?
_diffrn_ambient_temperature       100(2)
_diffrn_radiation_wavelength      0.71073
_diffrn_radiation_type            MoK\a
_diffrn_source                    ?
_diffrn_measurement_device_type   ?
_diffrn_measurement_method        ?
_diffrn_detector_area_resol_mean  ?
_diffrn_reflns_number             1979
_diffrn_reflns_av_unetI/netI      0.0237
_diffrn_reflns_av_R_equivalents   ?
_diffrn_reflns_limit_h_min        0
_diffrn_reflns_limit_h_max        8
_diffrn_reflns_limit_k_min        0
_diffrn_reflns_limit_k_max        12
_diffrn_reflns_limit_l_min        -18
_diffrn_reflns_limit_l_max        18
_diffrn_reflns_theta_min          3.024
_diffrn_reflns_theta_max          33.268
_diffrn_reflns_theta_full         25.242
_diffrn_measured_fraction_theta_max   0.975
_diffrn_measured_fraction_theta_full  0.992
_diffrn_reflns_Laue_measured_fraction_max    0.975
_diffrn_reflns_Laue_measured_fraction_full   0.992
_diffrn_reflns_point_group_measured_fraction_max   0.972
_diffrn_reflns_point_group_measured_fraction_full  0.985
_reflns_number_total              1979
_reflns_number_gt                 1979
_reflns_threshold_expression      'I > 2\s(I)'
_reflns_Friedel_coverage          0.689
_reflns_Friedel_fraction_max      0.968
_reflns_Friedel_fraction_full     0.976
 
_reflns_special_details
;
 _reflns_Friedel_fraction is defined as the number of unique
 Friedel pairs measured divided by the number that would be
 possible theoretically, ignoring centric projections and
 systematic absences.
;
 
_computing_data_collection        ?
_computing_cell_refinement        ?
_computing_data_reduction         ?
_computing_structure_solution     ?
_computing_structure_refinement 'SHELXL-2018/3 (Sheldrick, 2018)'
_computing_molecular_graphics     ?
_computing_publication_material   ?
_refine_special_details           ?
_refine_ls_structure_factor_coef  Fsqd
_refine_ls_matrix_type            full
_refine_ls_weighting_scheme       calc
_refine_ls_weighting_details
'w=1/[\s^2^(Fo^2^)] where P=(Fo^2^+2Fc^2^)/3'
_atom_sites_solution_primary      ?
_atom_sites_solution_secondary    ?
_atom_sites_solution_hydrogens    difmap
_refine_ls_hydrogen_treatment     refall
_refine_ls_extinction_method      none
_refine_ls_extinction_coef        .
_refine_ls_abs_structure_details
;
 All f" are zero, so absolute structure could not be determined
;
_refine_ls_abs_structure_Flack    ?
_chemical_absolute_configuration  ?
_refine_ls_number_reflns          1979
_refine_ls_number_parameters      92
_refine_ls_number_restraints      0
_refine_ls_R_factor_all           0.0198
_refine_ls_R_factor_gt            0.0198
_refine_ls_wR_factor_ref          0.0492
_refine_ls_wR_factor_gt           0.0492
_refine_ls_goodness_of_fit_ref    2.094
_refine_ls_restrained_S_all       2.094
_refine_ls_shift/su_max           0.001
_refine_ls_shift/su_mean          0.000
 
loop_
 _atom_site_label
 _atom_site_type_symbol
 _atom_site_fract_x
 _atom_site_fract_y
 _atom_site_fract_z
 _atom_site_U_iso_or_equiv
 _atom_site_adp_type
 _atom_site_occupancy
 _atom_site_site_symmetry_order  
 _atom_site_calc_flag
 _atom_site_refinement_flags_posn
 _atom_site_refinement_flags_adp
 _atom_site_refinement_flags_occupancy
 _atom_site_disorder_assembly
 _atom_site_disorder_group
S1 S 0.61362(5) 0.58543(4) 0.47699(2) 0.01526(8) Uani 1 1 d . . . . .
H1 H 0.410(6) 0.644(4) 0.505(2) 0.075(8) Uiso 1 1 d . . . . .
O2 O 0.27024(17) 0.48851(11) 0.74100(7) 0.01834(18) Uani 1 1 d . . . . .
O1 O 0.29276(14) 0.28044(10) 0.61992(6) 0.01308(15) Uani 1 1 d . . . . .
N1 N 0.78474(16) 0.26379(12) 0.62515(7) 0.01100(16) Uani 1 1 d . . . . .
H1A H 0.739(3) 0.2579(19) 0.5491(14) 0.023(4) Uiso 1 1 d . . . . .
H1B H 0.741(3) 0.176(2) 0.6624(13) 0.021(4) Uiso 1 1 d . . . . .
H1C H 0.956(3) 0.2736(16) 0.6317(12) 0.009(3) Uiso 1 1 d . . . . .
C2 C 0.66785(17) 0.40938(14) 0.67734(7) 0.01015(17) Uani 1 1 d . . . . .
H2 H 0.726(3) 0.4207(19) 0.7535(13) 0.011(3) Uiso 1 1 d . . . . .
C3 C 0.38552(19) 0.39128(13) 0.68022(7) 0.01065(18) Uani 1 1 d . . . . .
C1 C 0.74368(19) 0.56600(14) 0.61670(9) 0.0135(2) Uani 1 1 d . . . . .
H1D H 0.921(3) 0.5728(18) 0.6072(13) 0.018(4) Uiso 1 1 d . . . . .
H1E H 0.692(3) 0.6656(19) 0.6590(12) 0.017(4) Uiso 1 1 d . . . . .
 
loop_
 _atom_site_aniso_label
 _atom_site_aniso_U_11
 _atom_site_aniso_U_22
 _atom_site_aniso_U_33
 _atom_site_aniso_U_23
 _atom_site_aniso_U_13
 _atom_site_aniso_U_12
S1 0.02092(13) 0.01310(12) 0.01177(11) 0.00315(9) -0.00002(9) 0.00208(11)
O2 0.0136(4) 0.0197(4) 0.0218(4) -0.0087(3) 0.0020(3) 0.0016(3)
O1 0.0090(3) 0.0157(4) 0.0146(3) -0.0038(3) 0.0001(2) -0.0016(3)
N1 0.0090(4) 0.0123(4) 0.0117(3) 0.0010(3) 0.0005(3) -0.0002(3)
C2 0.0093(4) 0.0115(4) 0.0097(3) -0.0006(3) -0.0005(3) -0.0009(4)
C3 0.0096(4) 0.0123(5) 0.0101(4) 0.0013(3) -0.0002(3) 0.0000(4)
C1 0.0136(4) 0.0132(5) 0.0139(4) 0.0008(4) -0.0011(3) -0.0032(4)
 
_geom_special_details
;
 All esds (except the esd in the dihedral angle between two l.s. planes)
 are estimated using the full covariance matrix.  The cell esds are taken
 into account individually in the estimation of esds in distances, angles
 and torsion angles; correlations between esds in cell parameters are only
 used when they are defined by crystal symmetry.  An approximate (isotropic)
 treatment of cell esds is used for estimating esds involving l.s. planes.
;
 
loop_
 _geom_bond_atom_site_label_1
 _geom_bond_atom_site_label_2
 _geom_bond_distance
 _geom_bond_site_symmetry_2
 _geom_bond_publ_flag
S1 C1 1.8219(11) . ?
S1 H1 1.25(3) . ?
O2 C3 1.2436(13) . ?
O1 C3 1.2604(12) . ?
N1 C2 1.4825(14) . ?
N1 H1A 0.944(16) . ?
N1 H1B 0.873(17) . ?
N1 H1C 0.936(14) . ?
C2 C1 1.5244(16) . ?
C2 C3 1.5357(13) . ?
C2 H2 0.969(15) . ?
C1 H1D 0.966(15) . ?
C1 H1E 0.997(16) . ?
 
loop_
 _geom_angle_atom_site_label_1
 _geom_angle_atom_site_label_2
 _geom_angle_atom_site_label_3
 _geom_angle
 _geom_angle_site_symmetry_1
 _geom_angle_site_symmetry_3
 _geom_angle_publ_flag
C1 S1 H1 97.2(11) . . ?
C2 N1 H1A 109.7(10) . . ?
C2 N1 H1B 108.9(11) . . ?
H1A N1 H1B 112.4(14) . . ?
C2 N1 H1C 108.7(9) . . ?
H1A N1 H1C 110.1(14) . . ?
H1B N1 H1C 107.1(14) . . ?
N1 C2 C1 110.73(8) . . ?
N1 C2 C3 110.94(8) . . ?
C1 C2 C3 111.04(9) . . ?
N1 C2 H2 109.6(9) . . ?
C1 C2 H2 106.4(10) . . ?
C3 C2 H2 108.0(9) . . ?
O2 C3 O1 126.27(10) . . ?
O2 C3 C2 116.83(9) . . ?
O1 C3 C2 116.90(9) . . ?
C2 C1 S1 113.96(7) . . ?
C2 C1 H1D 111.8(9) . . ?
S1 C1 H1D 105.6(9) . . ?
C2 C1 H1E 111.3(9) . . ?
S1 C1 H1E 106.7(9) . . ?
H1D C1 H1E 106.9(13) . . ?
 
loop_
 _geom_torsion_atom_site_label_1
 _geom_torsion_atom_site_label_2
 _geom_torsion_atom_site_label_3
 _geom_torsion_atom_site_label_4
 _geom_torsion
 _geom_torsion_site_symmetry_1
 _geom_torsion_site_symmetry_2
 _geom_torsion_site_symmetry_3
 _geom_torsion_site_symmetry_4
 _geom_torsion_publ_flag
N1 C2 C3 O2 166.15(9) . . . . ?
C1 C2 C3 O2 -70.26(12) . . . . ?
N1 C2 C3 O1 -14.54(12) . . . . ?
C1 C2 C3 O1 109.05(11) . . . . ?
N1 C2 C1 S1 69.71(9) . . . . ?
C3 C2 C1 S1 -53.99(10) . . . . ?
 
_refine_diff_density_max    0.288
_refine_diff_density_min   -0.215
_refine_diff_density_rms    0.046

_shelx_res_file
;
TITL as_lcys_har_0m_a.res in P2(1)2(1)2(1)
    shelx.res
    created by SHELXL-2018/3 at 10:15:41 on 01-Jun-2023
REM Old TITL AS_Lcys_har_0m in P222 #16
REM SHELXT solution in P2(1)2(1)2(1)
REM R1 0.064, Rweak 0.023, Alpha 0.006, Orientation as input
REM Flack x = 0.013 ( 0.025 ) from Parsons' quotients
REM Formula found by SHELXT: C3 N O2 S
CELL 0.71073 5.4128 8.147 11.9744 90 90 90
ZERR 4 0.0004 0.0007 0.0011 0 0 0
LATT -1
SYMM 0.5-X,-Y,0.5+Z
SYMM -X,0.5+Y,0.5-Z
SYMM 0.5+X,0.5-Y,-Z
SFAC C H N O S
DISP    C     0.0    0.0        11.32
DISP    N     0.0    0.0        19.39
DISP    O     0.0    0.0        32.04
DISP    H     0.0    0.0         0.67
DISP    S     0.0    0.0       524.37
UNIT 12 28 4 8 4

L.S. 20
PLAN  10
TEMP -173.15
CONF
BOND $H
list 3
ACTA
MORE -1
fmap 2
MERG 0
REM <olex2.extras>
REM <HklSrc "%.\\F_1979_xd_high_prec.hkl">
REM </olex2.extras>

WGHT    0.000000
FVAR       1.00862
S1    5    0.613623    0.585427    0.476993    11.00000    0.02092    0.01310 =
         0.01177    0.00315   -0.00002    0.00208
H1    2    0.409736    0.643861    0.505365    11.00000    0.07497
O2    4    0.270236    0.488509    0.740998    11.00000    0.01356    0.01969 =
         0.02176   -0.00867    0.00196    0.00157
O1    4    0.292756    0.280445    0.619923    11.00000    0.00901    0.01566 =
         0.01459   -0.00379    0.00012   -0.00158
N1    3    0.784742    0.263789    0.625154    11.00000    0.00895    0.01231 =
         0.01172    0.00098    0.00047   -0.00020
H1A   2    0.739392    0.257868    0.549131    11.00000    0.02274
H1B   2    0.741449    0.176306    0.662411    11.00000    0.02065
H1C   2    0.956463    0.273580    0.631691    11.00000    0.00950
C2    1    0.667850    0.409378    0.677343    11.00000    0.00931    0.01149 =
         0.00966   -0.00064   -0.00053   -0.00093
H2    2    0.725583    0.420666    0.753517    11.00000    0.01141
C3    1    0.385522    0.391277    0.680216    11.00000    0.00958    0.01227 =
         0.01011    0.00128   -0.00021   -0.00003
C1    1    0.743684    0.565995    0.616698    11.00000    0.01356    0.01320 =
         0.01386    0.00085   -0.00115   -0.00318
H1D   2    0.920589    0.572797    0.607159    11.00000    0.01812
H1E   2    0.692056    0.665604    0.658998    11.00000    0.01721
HKLF 3




REM  as_lcys_har_0m_a.res in P2(1)2(1)2(1)
REM wR2 = 0.0492, GooF = S = 2.094, Restrained GooF = 2.094 for all data
REM R1 = 0.0198 for 1979 Fo > 4sig(Fo) and 0.0198 for all 1979 data
REM 92 parameters refined using 0 restraints

END

WGHT      0.0254      0.0770

REM Highest difference peak  0.288,  deepest hole -0.215,  1-sigma level  0.046
Q1    1   0.5402  0.4102  0.6758  11.00000  0.05    0.29
Q2    1   0.7037  0.4851  0.6430  11.00000  0.05    0.27
Q3    1   0.6464  0.5024  0.4247  11.00000  0.05    0.22
Q4    1   0.7241  0.3400  0.6534  11.00000  0.05    0.21
Q5    1   0.2273  0.4633  0.7489  11.00000  0.05    0.19
Q6    1   0.2743  0.5443  0.7081  11.00000  0.05    0.19
Q7    1   0.2658  0.3049  0.5991  11.00000  0.05    0.18
Q8    1   0.2945  0.4317  0.7226  11.00000  0.05    0.17
Q9    1   0.6525  0.6567  0.4382  11.00000  0.05    0.15
Q10   1   0.7174  0.6067  0.4739  11.00000  0.05    0.15
;
_shelx_res_checksum   74342

_shelx_hkl_file
;
   0   0   2 4.06448 0.03937   1
   0   0   4 6.17252  0.0648   1
   0   0   6 23.9132 0.49826   1
   0   0   8 41.1244 0.48207   1
   0   0  10 3.17333 0.13393   1
   0   0  12 8.47113 0.18652   1
   0   0  14 26.2435 0.31017   1
   0   0  16 7.21526 0.18918   1
   0   0  18 5.97076  0.1432   1
   0   1   1 16.1211 0.25494   1
   0   1   2 42.8048 0.30511   1
   0   1   3 71.7275 0.67331   1
   0   1   4 46.9553 0.47268   1
   0   1   5 29.4252 0.25998   1
   0   1   6 26.5307 0.28646   1
   0   1   7  5.1817 0.05018   1
   0   1   8 27.4472 0.41771   1
   0   1   9 1.10905 0.08566   1
   0   1  10 20.7087 0.17505   1
   0   1  11 1.84662 0.09206   1
   0   1  12 11.9829 0.12393   1
   0   1  13 7.23602 0.09328   1
   0   1  14 15.6633 0.13471   1
   0   1  15 7.17147 0.10319   1
   0   1  16 20.3846  0.1663   1
   0   1  17  14.601 0.12602   1
   0   1  18 4.37721 0.11651   1
   0   2   0 24.1131 0.61834   1
   0   2   1 39.8255 0.45285   1
   0   2   2  12.234 0.20517   1
   0   2   3  3.1257 0.03839   1
   0   2   4 64.3782 0.41683   1
   0   2   5 13.6404 0.08211   1
   0   2   6    0.80  0.0625   1
   0   2   7 36.8885 0.32314   1
   0   2   8 4.62061 0.06168   1
   0   2   9 17.9126 0.12477   1
   0   2  10 4.28836 0.06762   1
   0   2  11 16.7066 0.13228   1
   0   2  12 13.2533 0.10827   1
   0   2  13  25.221 0.17188   1
   0   2  14 10.2103 0.10822   1
   0   2  15  4.6551 0.12352   1
   0   2  16  7.6184 0.10566   1
   0   2  17 10.7364 0.12015   1
   0   2  18 5.57943 0.12098   1
   0   3   1 74.3699 1.10932   1
   0   3   2 16.1034 0.27696   1
   0   3   3 29.7027 0.25839   1
   0   3   4 2.32164 0.06246   1
   0   3   5 19.2429 0.23931   1
   0   3   6 10.9558 0.07713   1
   0   3   7 31.9442 0.40148   1
   0   3   8 5.18556 0.07135   1
   0   3   9  34.751 0.60804   1
   0   3  10 4.12068 0.11527   1
   0   3  11  19.128 0.18794   1
   0   3  12 5.40555  0.0925   1
   0   3  13  14.322 0.11206   1
   0   3  14 6.75648 0.09916   1
   0   3  15 1.26491 0.16207   1
   0   3  17  8.2547 0.11388   1
   0   4   0 4.63141 0.05722   1
   0   4   1 4.22256 0.03908   1
   0   4   2  22.302 0.49457   1
   0   4   3 18.4432 0.17811   1
   0   4   4 21.3068 0.50383   1
   0   4   5 26.7845 0.27628   1
   0   4   6  35.023 0.42658   1
   0   4   7 40.8573 0.36322   1
   0   4   8 23.3047 0.38276   1
   0   4   9 12.5399 0.10686   1
   0   4  10 9.15915 0.09608   1
   0   4  11 3.51426 0.10102   1
   0   4  12 9.72934 0.14184   1
   0   4  13 23.7933  0.1824   1
   0   4  14 6.52304 0.11191   1
   0   4  15  12.191 0.12304   1
   0   4  16 7.99125 0.12263   1
   0   4  17 6.77052 0.11077   1
   0   5   1 4.63249  0.0572   1
   0   5   2 8.15966 0.06434   1
   0   5   3 19.2632 0.39402   1
   0   5   4 27.1037 0.28594   1
   0   5   5 13.4566 0.12336   1
   0   5   6 6.57647 0.07755   1
   0   5   7  1.0247 0.10247   1
   0   5   8 11.2089 0.09234   1
   0   5   9 1.52315 0.08863   1
   0   5  11 3.72961 0.11797   1
   0   5  12 7.01498 0.09694   1
   0   5  13 1.86279 0.12347   1
   0   5  14 12.2532 0.12772   1
   0   5  15 7.78653 0.11045   1
   0   5  16 11.2303 0.12244   1
   0   6   0 48.4227 0.54189   1
   0   6   1 4.69148 0.08313   1
   0   6   2 29.6304 0.30644   1
   0   6   3 4.50888 0.08317   1
   0   6   4 3.52846  0.1077   1
   0   6   5 1.33417 0.11618   1
   0   6   6 26.6133 0.32164   1
   0   6   7  15.818 0.13055   1
   0   6   8 8.52467 0.08681   1
   0   6   9 9.39255 0.08198   1
   0   6  10 10.1548 0.09207   1
   0   6  12 10.4259 0.11174   1
   0   6  13 6.50692 0.10758   1
   0   6  14  12.929 0.12762   1
   0   6  15 1.89473 0.15042   1
   0   7   1 2.54362 0.08649   1
   0   7   2   14.90 0.11443   1
   0   7   3 29.3488 0.47396   1
   0   7   4 9.74731 0.09798   1
   0   7   5 9.47734  0.0976   1
   0   7   6 30.7337 0.38801   1
   0   7   7 2.91033 0.11682   1
   0   7   8 15.2611 0.19658   1
   0   7   9 5.75674 0.07643   1
   0   7  10 8.67237 0.08879   1
   0   7  11 2.92575 0.13501   1
   0   7  12 4.34971 0.14599   1
   0   7  13 6.23298 0.10669   1
   0   7  14 18.4762 0.20026   1
   0   7  15 3.39706 0.13394   1
   0   8   1 15.6275 0.12158   1
   0   8   2 15.6793  0.1333   1
   0   8   3 16.3276 0.13689   1
   0   8   4 2.45967 0.11994   1
   0   8   5 2.11896 0.12506   1
   0   8   6 4.21307 0.11037   1
   0   8   7 19.3672 0.17375   1
   0   8   9 11.9808 0.11852   1
   0   8  10 3.51852 0.11937   1
   0   8  11 19.8663  0.1651   1
   0   8  12 4.17253 0.11983   1
   0   8  13  12.339 0.14304   1
   0   8  14 3.27414  0.1405   1
   0   9   1 21.1965 0.15427   1
   0   9   2 11.3657 0.12406   1
   0   9   3 18.0408 0.18292   1
   0   9   4 8.32706  0.1327   1
   0   9   5 5.66039 0.12102   1
   0   9   6 1.33041 0.15785   1
   0   9   7  11.658 0.13167   1
   0   9   9 11.0788 0.14758   1
   0   9  11 7.43572   0.117   1
   0  10   0 16.5744 0.34662   1
   0  10   1 8.83912 0.11144   1
   0  10   2 2.15407  0.1207   1
   0  10   4 13.5573 0.18809   1
   0  10   5 12.0727 0.19134   1
   0  10   6 10.2416 0.15867   1
   0  10   7 21.3303 0.19245   1
   0  10   8 2.22486 0.14832   1
   0  10   9  3.2249 0.14109   1
   0  10  10 1.83848 0.14414   1
   0  10  11 3.40588   0.138   1
   0  11   1 9.20815    0.12   1
   0  11   2 6.63928 0.12351   1
   0  11   4 12.6519 0.13634   1
   0  11   5 3.01828 0.13584   1
   0  11   7 1.07238 0.21448   1
   0  11   8 8.01935 0.15151   1
   0  12   0 16.2145 0.24052   1
   0  12   1 4.48107 0.17072   1
   0  12   2 8.53756 0.19268   1
   0  12   3 4.08167 0.14822   1
   0  12   4 10.1148 0.14039   1
   0  12   5 1.60935 0.19573   1
   1   0   1 19.8925 0.17142   1
   1   0   2 12.4354 0.15078   1
   1   0   3 24.3401 0.20522   1
   1   0   4 15.5535 0.25878   1
   1   0   5 27.4461 0.24539   1
   1   0   6 31.1918 0.32781   1
   1   0   7 10.7065 0.08453   1
   1   0   8 9.19184 0.07724   1
   1   0   9 25.1239 0.39942   1
   1   0  10 18.6757 0.13065   1
   1   0  11 19.8293 0.13742   1
   1   0  12 10.3204 0.09157   1
   1   0  13 7.96555 0.09604   1
   1   0  14 16.3141 0.13853   1
   1   0  15 16.5475 0.20638   1
   1   0  16 6.49846  0.1031   1
   1   0  17 5.34416 0.10479   1
   1   0  18 3.20624 0.11852   1
   1   1 -18 4.96085 0.13002   1
   1   1 -17  5.0892 0.12969   1
   1   1 -16 6.01332  0.1214   1
   1   1 -15 10.9453 0.15486   1
   1   1 -14 7.72593 0.10031   1
   1   1 -13 7.93473 0.09704   1
   1   1 -12 15.0546 0.11724   1
   1   1 -11 6.07618 0.07817   1
   1   1 -10 10.3682 0.08729   1
   1   1  -9  9.4016 0.07446   1
   1   1  -8 11.9495 0.09289   1
   1   1  -6 29.7128 0.26167   1
   1   1  -5 32.6097 0.33594   1
   1   1  -4 12.2654  0.0746   1
   1   1  -3 13.2027  0.1121   1
   1   1  -2 52.6467 0.39993   1
   1   1  -1 43.5857  0.3087   1
   1   1   0 25.6049 0.23042   1
   1   1   1 44.1264 0.30481   1
   1   1   2 53.4692 0.46391   1
   1   1   3 12.8351 0.10985   1
   1   1   4 12.1074 0.07392   1
   1   1   5  32.149 0.34045   1
   1   1   6  29.627 0.42512   1
   1   1   7 21.1459 0.34877   1
   1   1   8 11.7248 0.08913   1
   1   1   9 9.48209 0.13552   1
   1   1  10 10.8867 0.10931   1
   1   1  11 5.91016 0.12098   1
   1   1  12 15.0483 0.13955   1
   1   1  13 7.81089  0.1037   1
   1   1  14 7.82752 0.09901   1
   1   1  15  11.261 0.12787   1
   1   1  16 6.00167 0.09414   1
   1   1  17 4.65403 0.10958   1
   1   1  18    5.00    0.12   1
   1   2 -18  7.4773 0.15112   1
   1   2 -17 3.61663 0.12581   1
   1   2 -16 10.7327 0.16678   1
   1   2 -15 7.81345 0.17278   1
   1   2 -14 8.96158 0.10545   1
   1   2 -13 9.43398 0.10335   1
   1   2 -12 6.28252 0.10505   1
   1   2 -11 10.2474 0.11515   1
   1   2 -10 9.01887 0.12197   1
   1   2  -9 15.3039 0.11239   1
   1   2  -8 17.9522 0.12533   1
   1   2  -7 14.8916 0.10744   1
   1   2  -6 22.3168  0.2292   1
   1   2  -5 10.7308 0.08247   1
   1   2  -4 27.2129 0.22563   1
   1   2  -3 17.3756 0.20402   1
   1   2  -2 43.0853 0.33852   1
   1   2  -1 42.6238 0.29057   1
   1   2   0 12.0768 0.09357   1
   1   2   1 41.5313  0.2946   1
   1   2   2 41.6094 0.52729   1
   1   2   3 17.1415 0.21031   1
   1   2   4 27.3434 0.27063   1
   1   2   5 10.9818 0.07012   1
   1   2   6 21.9162 0.36138   1
   1   2   7 14.7268 0.10423   1
   1   2   8 18.0111 0.15185   1
   1   2   9 15.0549 0.13318   1
   1   2  10 9.20652 0.09178   1
   1   2  11 10.3615 0.09941   1
   1   2  12 6.07042 0.08566   1
   1   2  13 9.66644 0.15673   1
   1   2  14 9.16079 0.10261   1
   1   2  15 7.53923 0.10744   1
   1   2  16 10.8361 0.10797   1
   1   2  17 3.43657 0.11349   1
   1   2  18 7.56968 0.24638   1
   1   3 -17 3.04795 0.13452   1
   1   3 -16 4.69468  0.1278   1
   1   3 -15 11.4481 0.13714   1
   1   3 -14 11.5226 0.12931   1
   1   3 -13  14.699 0.13062   1
   1   3 -12 21.1705 0.16532   1
   1   3 -11 11.5853 0.09883   1
   1   3 -10 13.8618 0.11867   1
   1   3  -9 11.0191 0.11525   1
   1   3  -8 23.5376 0.38831   1
   1   3  -7 25.3764 0.53692   1
   1   3  -6 23.9616 0.29589   1
   1   3  -5 15.2571 0.12027   1
   1   3  -4 26.8401 0.32135   1
   1   3  -3 4.68615 0.04908   1
   1   3  -2  29.004 0.24893   1
   1   3  -1 7.63151 0.04914   1
   1   3   0   7.502 0.04199   1
   1   3   1 7.73369 0.04655   1
   1   3   2 28.4137 0.40262   1
   1   3   3 4.45982  0.0426   1
   1   3   4 25.9979 0.32214   1
   1   3   5 15.2548 0.15044   1
   1   3   6 23.8667 0.28408   1
   1   3   7 25.0787 0.47331   1
   1   3   8 23.1193 0.37653   1
   1   3   9 10.7392 0.09638   1
   1   3  10 13.8286 0.11932   1
   1   3  11 11.6293  0.1062   1
   1   3  12 20.5215 0.15862   1
   1   3  13 14.7139 0.14306   1
   1   3  14 11.5681 0.12751   1
   1   3  15 11.5806 0.11701   1
   1   3  16 4.80416 0.11761   1
   1   3  17  3.0315  0.1204   1
   1   4 -17 5.62672 0.12174   1
   1   4 -16 10.8139  0.1216   1
   1   4 -15 9.32577 0.15119   1
   1   4 -14  2.5632 0.14045   1
   1   4 -13 6.09098 0.09933   1
   1   4 -12 10.3822  0.0968   1
   1   4 -11 9.88028 0.11842   1
   1   4 -10 5.39537 0.08897   1
   1   4  -9 16.1068 0.13131   1
   1   4  -8 17.0297 0.12331   1
   1   4  -7 7.01855 0.07551   1
   1   4  -6 8.32346  0.0859   1
   1   4  -5 17.2215 0.14894   1
   1   4  -4 19.1016  0.2259   1
   1   4  -3 21.4558 0.35375   1
   1   4  -2 26.4607 0.25642   1
   1   4  -1 20.2541 0.33351   1
   1   4   0 14.1128 0.08149   1
   1   4   2 26.1872 0.29117   1
   1   4   4 19.6392 0.32333   1
   1   4   5 16.9818 0.10865   1
   1   4   6 8.29578 0.06931   1
   1   4   7  7.4411  0.0934   1
   1   4   8 16.9891 0.13156   1
   1   4   9 16.2582 0.14516   1
   1   4  10 5.37122 0.08006   1
   1   4  11 9.86914 0.11349   1
   1   4  12 10.5887  0.1053   1
   1   4  13 5.98749 0.09186   1
   1   4  14 2.71109 0.11803   1
   1   4  15 9.46626 0.12518   1
   1   4  16 10.7037 0.11678   1
   1   4  17 5.54437 0.11633   1
   1   5 -16 2.86007 0.14161   1
   1   5 -15 8.05605 0.11234   1
   1   5 -14 10.6949 0.15241   1
   1   5 -13 5.76541 0.14396   1
   1   5 -12 5.93127  0.0843   1
   1   5 -11 7.27942 0.08586   1
   1   5 -10 6.93397 0.09663   1
   1   5  -9 3.82099 0.09422   1
   1   5  -8 18.7915 0.14847   1
   1   5  -7 19.0835 0.14882   1
   1   5  -6 7.36071 0.09985   1
   1   5  -5 22.4257 0.37435   1
   1   5  -4  16.849 0.13413   1
   1   5  -3 10.1755 0.10368   1
   1   5  -2 5.54977 0.05586   1
   1   5  -1  24.299 0.39652   1
   1   5   0 44.2504 0.34937   1
   1   5   2 5.82495 0.06867   1
   1   5   3 10.1302 0.08144   1
   1   5   4  16.855 0.10887   1
   1   5   5  22.816 0.36794   1
   1   5   6 7.53591 0.07896   1
   1   5   7 18.8995 0.14075   1
   1   5   8 18.6357 0.15105   1
   1   5   9  3.5426 0.09033   1
   1   5  10 7.00928 0.08703   1
   1   5  11 7.45587  0.0912   1
   1   5  12 5.81034 0.09036   1
   1   5  13 5.70526 0.09903   1
   1   5  14 10.7457  0.1126   1
   1   5  15  7.9925  0.1051   1
   1   5  16 2.74955 0.13639   1
   1   6 -16  10.584 0.20597   1
   1   6 -15 10.6471 0.12304   1
   1   6 -14 9.76883 0.11772   1
   1   6 -13 8.71149 0.11135   1
   1   6 -12 10.2801 0.10019   1
   1   6 -11 14.4821 0.11773   1
   1   6 -10 6.58939 0.10092   1
   1   6  -9 20.1921 0.14535   1
   1   6  -8 17.6862 0.23719   1
   1   6  -7 8.39524  0.1078   1
   1   6  -6 15.6247 0.14592   1
   1   6  -5 19.0016 0.16683   1
   1   6  -4 11.4913 0.10356   1
   1   6  -3 10.8844 0.13689   1
   1   6  -2 8.54868 0.08305   1
   1   6  -1 4.67333 0.05777   1
   1   6   0  2.1095 0.06163   1
   1   6   1 4.65296 0.07415   1
   1   6   2  8.9073 0.08869   1
   1   6   3 10.9982 0.11138   1
   1   6   4  11.606 0.12967   1
   1   6   5  18.891 0.13287   1
   1   6   6 15.6032 0.12401   1
   1   6   7 8.40892 0.08562   1
   1   6   8 17.7736 0.15979   1
   1   6   9 20.7401 0.16779   1
   1   6  10 6.58787  0.0888   1
   1   6  11  14.532 0.12799   1
   1   6  12 10.3779 0.10889   1
   1   6  13 8.60058 0.10755   1
   1   6  14 9.84937 0.11067   1
   1   6  15 10.4489 0.15121   1
   1   6  16 10.4614 0.12522   1
   1   7 -15 5.06754 0.15787   1
   1   7 -14    9.49 0.12013   1
   1   7 -13 7.70584 0.12134   1
   1   7 -12 10.3146  0.1144   1
   1   7 -11 6.35531 0.09992   1
   1   7 -10 2.57099 0.10113   1
   1   7  -9 11.7953  0.1064   1
   1   7  -8 12.2788  0.1185   1
   1   7  -7  6.7624 0.13087   1
   1   7  -6 11.5326  0.1279   1
   1   7  -5 12.1149 0.12753   1
   1   7  -4 13.5436 0.13475   1
   1   7  -3 12.0096 0.15779   1
   1   7  -2 8.13757  0.1063   1
   1   7  -1 18.3128 0.13215   1
   1   7   0 25.4041 0.29562   1
   1   7   1 18.4935 0.13167   1
   1   7   2 7.63937 0.07985   1
   1   7   3 11.7779 0.13924   1
   1   7   4 13.9957 0.11611   1
   1   7   5 12.2487 0.12369   1
   1   7   6 11.6722 0.10452   1
   1   7   7 6.56582 0.10128   1
   1   7   8 11.9721 0.09773   1
   1   7   9 11.8722  0.1015   1
   1   7  10 2.32594 0.10748   1
   1   7  11  6.5123 0.09597   1
   1   7  12 10.2621 0.11109   1
   1   7  13    7.70 0.10454   1
   1   7  14 9.12031 0.10965   1
   1   7  15  5.1449 0.13217   1
   1   8 -14 1.14018 0.23681   1
   1   8 -13 6.70224 0.11414   1
   1   8 -12 3.68239 0.13442   1
   1   8 -11 3.78286 0.12953   1
   1   8 -10 4.02368 0.10562   1
   1   8  -9 8.42437 0.09793   1
   1   8  -8  11.603 0.12367   1
   1   8  -7 10.3571 0.16365   1
   1   8  -6  4.7392 0.18252   1
   1   8  -5 6.61211 0.11948   1
   1   8  -4 15.5454 0.16339   1
   1   8  -3 12.0254 0.15052   1
   1   8  -2  17.373  0.2524   1
   1   8  -1 14.9513 0.12976   1
   1   8   0 8.67698 0.09681   1
   1   8   1 15.2049 0.12726   1
   1   8   2 17.5736 0.12974   1
   1   8   3 12.1161  0.0945   1
   1   8   4 15.3678 0.12168   1
   1   8   5 6.51767 0.13962   1
   1   8   6 4.55851 0.08555   1
   1   8   7 10.2796 0.10214   1
   1   8   8 11.7226 0.10962   1
   1   8   9 8.45813 0.11291   1
   1   8  10 4.04969 0.11359   1
   1   8  11 3.78418 0.11231   1
   1   8  12 3.45254 0.11441   1
   1   8  13 6.75056 0.10369   1
   1   9 -12 10.5171 0.12551   1
   1   9 -11 4.39773 0.18077   1
   1   9 -10 9.07249 0.18683   1
   1   9  -9 7.91328 0.10426   1
   1   9  -8 12.2499 0.16817   1
   1   9  -7 14.4976 0.15106   1
   1   9  -6 11.7818  0.1358   1
   1   9  -5 13.0004 0.14153   1
   1   9  -4 6.27057 0.11323   1
   1   9  -3 5.46717 0.11066   1
   1   9  -2 9.35468 0.12186   1
   1   9  -1 4.84252 0.12184   1
   1   9   0 9.34452 0.12253   1
   1   9   1 5.08035 0.10826   1
   1   9   2 9.08185 0.09414   1
   1   9   3  5.4909  0.0856   1
   1   9   4 6.12454  0.1094   1
   1   9   5 13.1556 0.13454   1
   1   9   6 11.4748 0.12462   1
   1   9   7 14.8765 0.14452   1
   1   9   8 12.3855  0.1308   1
   1   9   9 7.67789 0.14978   1
   1   9  10 8.98554 0.13633   1
   1   9  11 4.68081 0.15168   1
   1   9  12 10.4475 0.14645   1
   1  10 -10 11.6786 0.13015   1
   1  10  -9 8.63423 0.10771   1
   1  10  -8  3.0545 0.14405   1
   1  10  -7 5.14296 0.14097   1
   1  10  -6 5.16236 0.13172   1
   1  10  -5 7.17077 0.17711   1
   1  10  -4 8.78408  0.1258   1
   1  10  -3 9.76576 0.12953   1
   1  10  -2 12.0146   0.139   1
   1  10  -1 9.71957 0.15279   1
   1  10   0 10.8674 0.15413   1
   1  10   1 9.77752 0.11301   1
   1  10   2 12.1717 0.12324   1
   1  10   3 9.49789  0.0995   1
   1  10   4 8.63481 0.13781   1
   1  10   5 6.83374 0.10024   1
   1  10   6 5.01697 0.10564   1
   1  10   7 5.21728 0.11788   1
   1  10   8 2.91204 0.17857   1
   1  10   9 9.00555 0.12937   1
   1  10  10 11.9683 0.12575   1
   1  11  -8 2.85482 0.18215   1
   1  11  -7 4.80625 0.14564   1
   1  11  -6 9.40638 0.17329   1
   1  11  -5 9.64261 0.16023   1
   1  11  -4 6.89928 0.13117   1
   1  11  -3 6.06712 0.12526   1
   1  11  -2 8.69137 0.16281   1
   1  11  -1  12.287 0.31253   1
   1  11   0 8.42674  0.1513   1
   1  11   1  12.302 0.14428   1
   1  11   2 8.87412  0.1972   1
   1  11   3 5.93464 0.18788   1
   1  11   4 6.92892  0.1169   1
   1  11   5 9.69175 0.12691   1
   1  11   6 9.04378 0.13214   1
   1  11   7 5.28299 0.15521   1
   1  11   8   2.755 0.24501   1
   1  12  -5 7.06187 0.26339   1
   1  12  -4 6.21289  0.1352   1
   1  12  -3 4.70319 0.15202   1
   1  12  -2 5.79396 0.15792   1
   1  12   0 2.03715 0.19144   1
   1  12   1 1.41774 0.24334   1
   1  12   2 5.83352 0.15771   1
   1  12   3 4.65833  0.2136   1
   1  12   4 6.29047 0.18441   1
   2   0   0 78.2346 1.05203   1
   2   0   1 26.4424 0.24014   1
   2   0   2 30.5691 0.32533   1
   2   0   3 47.3626 0.36843   1
   2   0   4 27.8034 0.48016   1
   2   0   5 34.1928 0.32039   1
   2   0   6 18.0602 0.30537   1
   2   0   7 10.7805 0.07838   1
   2   0   8 27.0235 0.30436   1
   2   0   9 1.83303 0.07638   1
   2   0  10 3.34066 0.07783   1
   2   0  11 2.65895 0.07146   1
   2   0  12 7.76144 0.08117   1
   2   0  13    1.20 0.10833   1
   2   0  14 7.91581 0.10043   1
   2   0  15  11.054 0.13389   1
   2   0  16 12.4234 0.12517   1
   2   0  17 12.6677 0.12828   1
   2   1 -17 8.90506  0.1151   1
   2   1 -16 4.71911 0.14303   1
   2   1 -15 9.79694  0.1133   1
   2   1 -14 5.37959 0.09945   1
   2   1 -13 17.0385 0.14203   1
   2   1 -12 7.60789 0.10055   1
   2   1 -11 19.8411 0.11844   1
   2   1 -10 11.8727 0.08044   1
   2   1  -9 23.8275 0.17165   1
   2   1  -8 13.9617 0.09383   1
   2   1  -7 20.4458 0.34384   1
   2   1  -6 10.6165 0.08101   1
   2   1  -5 26.2109 0.23044   1
   2   1  -4 3.07571 0.04227   1
   2   1  -2 29.0191 0.39439   1
   2   1  -1 29.9007 0.38093   1
   2   1   0 43.1888 0.41342   1
   2   1   1 29.7187 0.30032   1
   2   1   2 29.2942 0.33044   1
   2   1   3 19.4507 0.32492   1
   2   1   4 2.79285 0.03402   1
   2   1   5 25.0677 0.28443   1
   2   1   6 10.5773 0.07516   1
   2   1   8 13.8065 0.09271   1
   2   1   9 23.9908 0.22363   1
   2   1  10 12.0008 0.09374   1
   2   1  11 19.7459 0.13851   1
   2   1  12 7.61643 0.07418   1
   2   1  13 16.9487 0.12656   1
   2   1  14 5.35724  0.0896   1
   2   1  15 9.76883 0.09674   1
   2   1  16 5.20577 0.09989   1
   2   1  17 8.83516 0.10469   1
   2   2 -17 1.67631 0.14914   1
   2   2 -16 9.29247 0.11515   1
   2   2 -15 3.29545 0.11835   1
   2   2 -14  15.831 0.13928   1
   2   2 -13 7.88987 0.10076   1
   2   2 -12 19.4543 0.14136   1
   2   2 -11 5.65685 0.08043   1
   2   2 -10 19.8917 0.14127   1
   2   2  -9  6.9152 0.07809   1
   2   2  -8 22.0909 0.21593   1
   2   2  -7 14.6492 0.10888   1
   2   2  -6 25.0499 0.21617   1
   2   2  -5 2.17256 0.07134   1
   2   2  -4 36.2298 0.47378   1
   2   2  -3  7.7013 0.05908   1
   2   2  -2 24.9135 0.33637   1
   2   2  -1 31.9966 0.25518   1
   2   2   0 5.09608 0.03728   1
   2   2   1 31.6183  0.2546   1
   2   2   2 23.9454  0.4172   1
   2   2   3 7.54785 0.06359   1
   2   2   4 36.1862 0.44423   1
   2   2   5 2.11424 0.05676   1
   2   2   6  24.638 0.35027   1
   2   2   7 14.6598   0.103   1
   2   2   8  21.876  0.2489   1
   2   2   9 7.03491 0.07818   1
   2   2  10 19.9547 0.14934   1
   2   2  11 5.93464 0.09099   1
   2   2  12 19.5923 0.13934   1
   2   2  13 7.70844 0.08043   1
   2   2  14 15.7461 0.12162   1
   2   2  15 3.40881 0.09534   1
   2   2  16 9.38243  0.1247   1
   2   2  17 1.74642 0.14601   1
   2   3 -17 7.15402 0.11462   1
   2   3 -16 10.8646 0.12288   1
   2   3 -15 5.90847 0.12101   1
   2   3 -14  8.1111 0.13747   1
   2   3 -13 9.20109 0.09673   1
   2   3 -12 3.30454 0.09835   1
   2   3 -11 9.40425 0.09304   1
   2   3 -10 2.64953 0.10568   1
   2   3  -9 14.4859 0.12322   1
   2   3  -8 4.02244 0.07831   1
   2   3  -7  9.4842 0.08541   1
   2   3  -6 20.8801  0.1772   1
   2   3  -5 26.1641  0.3029   1
   2   3  -4  38.797  0.4249   1
   2   3  -3   21.91 0.26586   1
   2   3  -2 32.0638 0.32498   1
   2   3   0 20.9411 0.25261   1
   2   3   1  19.207 0.31447   1
   2   3   2 31.6198  0.2636   1
   2   3   3 21.3612 0.53719   1
   2   3   4 38.3056 0.47408   1
   2   3   5 25.6979 0.37824   1
   2   3   7 9.49368 0.07637   1
   2   3   8 3.74032  0.0655   1
   2   3   9 14.4941 0.10625   1
   2   3  10 2.54755 0.09225   1
   2   3  11 9.38669 0.09641   1
   2   3  12 3.37194 0.09194   1
   2   3  13 9.31128 0.09075   1
   2   3  14 7.96681 0.11171   1
   2   3  15 6.08933 0.08293   1
   2   3  16 10.8204 0.10536   1
   2   3  17 6.93974 0.13473   1
   2   4 -16 7.95927 0.11496   1
   2   4 -15  3.7108 0.12531   1
   2   4 -14  10.436 0.15475   1
   2   4 -13 4.38748 0.09915   1
   2   4 -12 16.9127 0.13067   1
   2   4 -11 14.8543 0.11916   1
   2   4 -10 18.9243 0.13845   1
   2   4  -9 12.0503  0.1029   1
   2   4  -8 25.9097 0.24798   1
   2   4  -7 14.8206 0.11369   1
   2   4  -6 15.7525 0.11713   1
   2   4  -5 8.95879 0.11106   1
   2   4  -4 11.8836 0.09467   1
   2   4  -3 23.5892 0.22934   1
   2   4  -2 18.4608 0.15682   1
   2   4  -1 23.0736 0.29514   1
   2   4   0 31.2429 0.56509   1
   2   4   1 23.2779 0.43088   1
   2   4   2  18.918 0.22333   1
   2   4   3  23.869  0.3536   1
   2   4   4 11.8941 0.08744   1
   2   4   5 8.74529 0.06118   1
   2   4   6 15.6502 0.10224   1
   2   4   7 14.7462 0.11528   1
   2   4   8 26.0446 0.29757   1
   2   4   9   12.14 0.11656   1
   2   4  10 18.8685 0.14469   1
   2   4  11 14.8476 0.12258   1
   2   4  12 16.7631 0.12527   1
   2   4  13 4.47214 0.08497   1
   2   4  14 10.0965 0.10103   1
   2   4  15 3.83406 0.09781   1
   2   4  16 7.99562 0.09693   1
   2   5 -16  3.4322 0.13694   1
   2   5 -15 12.0652 0.12888   1
   2   5 -14 3.21248 0.11051   1
   2   5 -13  14.499 0.27174   1
   2   5 -12 8.82723 0.09799   1
   2   5 -11 15.2575 0.12289   1
   2   5 -10 6.27853  0.0876   1
   2   5  -9 13.7379 0.11283   1
   2   5  -8 13.1282 0.10893   1
   2   5  -7 24.4577 0.20586   1
   2   5  -6 6.76757  0.0894   1
   2   5  -5 15.7629 0.13069   1
   2   5  -4 4.98297 0.12743   1
   2   5  -3 8.28613 0.08931   1
   2   5  -2 15.3851  0.1248   1
   2   5  -1 8.74242 0.07321   1
   2   5   0 16.5333 0.10948   1
   2   5   1 8.67698 0.06396   1
   2   5   2 15.3815 0.10077   1
   2   5   3 8.55453 0.06312   1
   2   5   4 4.95681 0.05245   1
   2   5   5 16.2441 0.11204   1
   2   5   6 6.58179 0.06229   1
   2   5   7 24.2955 0.19839   1
   2   5   8 13.2484 0.10001   1
   2   5   9 13.6785 0.10199   1
   2   5  10 6.34586 0.07328   1
   2   5  11 15.3743 0.11773   1
   2   5  12 8.89213 0.08884   1
   2   5  13 14.1937 0.11449   1
   2   5  14 3.15595 0.09664   1
   2   5  15 11.6202 0.14673   1
   2   5  16 3.43802 0.17888   1
   2   6 -15 10.0439 0.12445   1
   2   6 -14  1.1225 0.19599   1
   2   6 -13 2.52784 0.12461   1
   2   6 -12 8.18841 0.16181   1
   2   6 -11  2.3388 0.11117   1
   2   6 -10 8.83516 0.09734   1
   2   6  -9 5.45619 0.08889   1
   2   6  -8 3.07734 0.11049   1
   2   6  -7 11.0027 0.11134   1
   2   6  -6 6.19031 0.09289   1
   2   6  -5 22.5193 0.22425   1
   2   6  -4  22.166 0.22151   1
   2   6  -3 24.2322 0.18178   1
   2   6  -2 4.68081 0.08332   1
   2   6  -1 23.6907 0.14774   1
   2   6   0 5.07346 0.06209   1
   2   6   1 23.5306 0.22333   1
   2   6   2  5.0636 0.11356   1
   2   6   3  23.984 0.22995   1
   2   6   4 22.2776 0.14072   1
   2   6   5 21.9176 0.12844   1
   2   6   6 6.22495 0.05783   1
   2   6   7 10.9197 0.09799   1
   2   6   8 3.14484 0.07155   1
   2   6   9 5.34977 0.07103   1
   2   6  10 8.90168 0.07808   1
   2   6  11  2.2891 0.08082   1
   2   6  12 8.46877 0.09092   1
   2   6  13 2.42899 0.09881   1
   2   6  14 0.96954 0.19081   1
   2   6  15 10.0434 0.10355   1
   2   7 -14 7.52795 0.11889   1
   2   7 -13 7.08661 0.10442   1
   2   7 -12 8.86115  0.1185   1
   2   7 -11 16.5276 0.13402   1
   2   7 -10 8.71378 0.10099   1
   2   7  -9 17.1272 0.13838   1
   2   7  -8 6.57419 0.10343   1
   2   7  -7 9.37763 0.11037   1
   2   7  -6  15.782 0.15461   1
   2   7  -5 10.0349 0.12257   1
   2   7  -4 7.30685 0.14233   1
   2   7  -3 14.6973 0.16874   1
   2   7  -2 19.8439 0.14312   1
   2   7  -1 7.39392 0.12037   1
   2   7   0 17.9162 0.15684   1
   2   7   1 7.41418   0.087   1
   2   7   2 20.8269 0.18078   1
   2   7   3 14.5079 0.10925   1
   2   7   4 7.46458 0.07703   1
   2   7   5 9.73036 0.08016   1
   2   7   6   15.10  0.1096   1
   2   7   7  9.6933 0.08305   1
   2   7   8 6.26658   0.075   1
   2   7   9 17.0338 0.13238   1
   2   7  10 8.74586 0.08861   1
   2   7  11 16.4128 0.15841   1
   2   7  12 9.05594 0.10877   1
   2   7  13 6.89493 0.08847   1
   2   7  14 7.81665 0.15032   1
   2   8 -13 6.45523 0.23082   1
   2   8 -12 10.6146 0.13095   1
   2   8 -11 4.03733 0.11394   1
   2   8 -10 9.89849 0.16922   1
   2   8  -9 1.78885 0.13696   1
   2   8  -8 15.3616 0.14028   1
   2   8  -7 4.67654 0.12082   1
   2   8  -6 16.7869 0.16382   1
   2   8  -5 11.9558 0.13592   1
   2   8  -4 10.4571 0.12814   1
   2   8  -3 7.16659 0.09698   1
   2   8  -2 2.71846 0.13059   1
   2   8  -1 11.9775 0.09476   1
   2   8   0 4.59238 0.09908   1
   2   8   1 12.2315 0.12877   1
   2   8   2 2.82312 0.09387   1
   2   8   3 7.38309 0.09481   1
   2   8   4  9.9935 0.08806   1
   2   8   5 11.8663 0.10239   1
   2   8   6 16.6748 0.12624   1
   2   8   7 4.44297 0.07878   1
   2   8   8 15.5859 0.13121   1
   2   8   9 1.72337 0.14216   1
   2   8  10 10.1863 0.12762   1
   2   8  11 3.93573  0.1804   1
   2   8  12 10.8913 0.11248   1
   2   8  13 6.34823 0.18194   1
   2   9 -12 4.28369 0.20426   1
   2   9 -11 5.33479 0.19307   1
   2   9 -10 4.84974  0.1165   1
   2   9  -9 4.30232 0.11738   1
   2   9  -8 6.61816 0.11181   1
   2   9  -7 1.17047 0.17514   1
   2   9  -6 7.91518 0.14719   1
   2   9  -5  6.9347 0.12546   1
   2   9  -4 15.3873 0.15825   1
   2   9  -3 3.87814 0.13924   1
   2   9  -2  20.005  0.1852   1
   2   9  -1 6.76609 0.13745   1
   2   9   0 12.6902 0.16076   1
   2   9   1 6.84105 0.13302   1
   2   9   2 19.5724 0.26542   1
   2   9   3 4.05956 0.12317   1
   2   9   4 15.2837 0.15343   1
   2   9   5 6.95917 0.08622   1
   2   9   6 8.19756 0.12443   1
   2   9   7 1.33417 0.19488   1
   2   9   8 6.60606 0.10823   1
   2   9   9  4.4317 0.11395   1
   2   9  10 4.80833 0.11646   1
   2   9  11 4.97494 0.12061   1
   2   9  12 3.76563 0.18324   1
   2  10 -10 8.40714 0.16474   1
   2  10  -9 8.98109 0.11858   1
   2  10  -8 10.7977 0.14216   1
   2  10  -7 11.0472 0.12718   1
   2  10  -6 7.34302 0.14572   1
   2  10  -5 6.00833 0.18225   1
   2  10  -4 5.41018 0.16635   1
   2  10  -3 10.6217 0.16429   1
   2  10  -2 10.8858 0.13871   1
   2  10  -1 12.9279  0.3272   1
   2  10   1 12.9865 0.16979   1
   2  10   2 10.6583 0.24394   1
   2  10   3  10.933   0.134   1
   2  10   4  5.3066 0.11024   1
   2  10   5  5.8112 0.10153   1
   2  10   6 7.11056 0.14204   1
   2  10   7 10.7842 0.15439   1
   2  10   8 10.9119 0.15808   1
   2  10   9 9.04157 0.12055   1
   2  10  10  8.2801 0.17633   1
   2  11  -7 8.73956 0.12415   1
   2  11  -6 8.33007 0.13865   1
   2  11  -5 11.3846 0.14801   1
   2  11  -4 3.47275 0.14974   1
   2  11  -3 2.95127 0.16942   1
   2  11  -2 8.03741 0.20031   1
   2  11  -1 2.01494 0.25063   1
   2  11   1 2.41454 0.18223   1
   2  11   2 8.04798 0.15283   1
   2  11   3 3.08707 0.19922   1
   2  11   4 3.82099 0.25255   1
   2  11   5 11.6867 0.32344   1
   2  11   6 8.13142 0.14266   1
   2  11   7 8.57788 0.14864   1
   2  12  -3  7.1861 0.40704   1
   2  12  -2 4.21663  0.2336   1
   2  12  -1 12.5411 0.22925   1
   2  12   0 2.14009 0.20093   1
   2  12   1 12.5371 0.23131   1
   2  12   2 4.27902 0.17878   1
   2  12   3 6.60606 0.69633   1
   3   0   1 23.4757 0.38125   1
   3   0   2 20.9191 0.34347   1
   3   0   3 11.3371 0.06704   1
   3   0   4 9.58541 0.06051   1
   3   0   5   16.00 0.10625   1
   3   0   6 12.2098 0.08641   1
   3   0   7 7.83709  0.0689   1
   3   0   8 25.4776 0.42547   1
   3   0   9 14.5317 0.10357   1
   3   0  10 14.0317 0.10156   1
   3   0  11  12.492 0.09446   1
   3   0  12 22.5258 0.15627   1
   3   0  14 5.40278  0.1092   1
   3   0  15 14.2538 0.14873   1
   3   0  16 6.57115 0.10576   1
   3   0  17 3.24345 0.14645   1
   3   1 -17 1.91572 0.18531   1
   3   1 -16 7.97433 0.12666   1
   3   1 -15 8.35464 0.10832   1
   3   1 -14 4.53652 0.11683   1
   3   1 -13 7.84538 0.10006   1
   3   1 -12 10.1774 0.11791   1
   3   1 -11 12.2376 0.10459   1
   3   1 -10 5.95063  0.0647   1
   3   1  -9 11.6155 0.09384   1
   3   1  -8 14.8883 0.10243   1
   3   1  -7 6.07783 0.07404   1
   3   1  -6 6.18466 0.06306   1
   3   1  -5  19.367 0.19079   1
   3   1  -4 34.4904  0.5474   1
   3   1  -3 9.49368 0.05425   1
   3   1  -2 17.2826 0.11833   1
   3   1  -1  23.666 0.24508   1
   3   1   0  23.523 0.38579   1
   3   1   1 23.4243  0.2427   1
   3   1   2 17.4433 0.12928   1
   3   1   3 9.12798 0.05094   1
   3   1   4 34.6981 0.32394   1
   3   1   5 19.3326 0.16216   1
   3   1   6 6.46684 0.05721   1
   3   1   7 6.39375 0.06178   1
   3   1   8 14.8243 0.10085   1
   3   1   9 11.3653 0.09459   1
   3   1  10 6.18789 0.07434   1
   3   1  11 12.5072 0.10114   1
   3   1  12 10.0399 0.09163   1
   3   1  13  7.6844 0.08524   1
   3   1  14 4.49667 0.09007   1
   3   1  15 8.05295 0.10493   1
   3   1  16 7.90759 0.10686   1
   3   1  17    1.80 0.15278   1
   3   2 -16 7.68765 0.11252   1
   3   2 -15 7.31505 0.10868   1
   3   2 -14 4.24028 0.12381   1
   3   2 -13 2.36008 0.10593   1
   3   2 -12 14.8654 0.16784   1
   3   2 -11 9.76217 0.10039   1
   3   2 -10 6.98856 0.08514   1
   3   2  -9 5.88473 0.09771   1
   3   2  -8 14.3934 0.13131   1
   3   2  -7 7.48331 0.08018   1
   3   2  -6 1.14018 0.07455   1
   3   2  -5 25.4751 0.57566   1
   3   2  -4 17.1776 0.10479   1
   3   2  -3 21.2979 0.34769   1
   3   2  -2 24.2114 0.29697   1
   3   2  -1 19.4589 0.16111   1
   3   2   0 0.44721 0.08944   1
   3   2   1 19.2281 0.32218   1
   3   2   2 23.9514  0.3672   1
   3   2   3 21.7297  0.3578   1
   3   2   4 17.2786  0.0981   1
   3   2   5 25.1623 0.34258   1
   3   2   6 1.20416 0.07889   1
   3   2   7 7.27599 0.08178   1
   3   2   8 14.2829 0.09592   1
   3   2   9 5.68771 0.06066   1
   3   2  10 7.06329 0.07504   1
   3   2  11  9.7719 0.09875   1
   3   2  12  14.825 0.11433   1
   3   2  13 2.17715 0.09416   1
   3   2  14 3.93192  0.1615   1
   3   2  15 7.38783 0.08392   1
   3   2  16 7.73175 0.09765   1
   3   3 -16  2.0664  0.1476   1
   3   3 -15 7.76595 0.11525   1
   3   3 -14 7.93599 0.12916   1
   3   3 -13 8.99833 0.13558   1
   3   3 -12 14.2077 0.11895   1
   3   3 -11 19.1646 0.14193   1
   3   3 -10 6.46761 0.08581   1
   3   3  -9 24.0678 0.16682   1
   3   3  -8 16.2668 0.12326   1
   3   3  -7 7.52396 0.09503   1
   3   3  -6 17.1286 0.12581   1
   3   3  -5 16.2191 0.11992   1
   3   3  -4 14.3743 0.10888   1
   3   3  -3 15.6576 0.11464   1
   3   3  -2 17.2116 0.11271   1
   3   3  -1 6.95342 0.05681   1
   3   3   0 8.68562 0.06735   1
   3   3   1 6.86367 0.05536   1
   3   3   2 17.1307 0.10216   1
   3   3   3 15.8849 0.11395   1
   3   3   4 14.3377 0.10497   1
   3   3   5 16.1759 0.09799   1
   3   3   6 17.1977 0.11281   1
   3   3   7 7.35799 0.06931   1
   3   3   8 16.0876  0.1324   1
   3   3   9 24.0676  0.1637   1
   3   3  10 6.75944 0.09024   1
   3   3  11 18.8186 0.12408   1
   3   3  12  14.111 0.10311   1
   3   3  13 9.40532 0.09144   1
   3   3  14 7.78332 0.11049   1
   3   3  15 7.70584   0.085   1
   3   3  16 1.80278 0.12481   1
   3   4 -16  4.6465 0.19585   1
   3   4 -15 8.58429 0.11766   1
   3   4 -14 8.44156 0.10247   1
   3   4 -13  2.8775 0.11642   1
   3   4 -12 10.7098 0.10644   1
   3   4 -11 5.95315 0.09155   1
   3   4 -10 6.68281 0.09053   1
   3   4  -9 10.7531 0.10137   1
   3   4  -8 12.2691 0.10637   1
   3   4  -7 8.50294 0.08997   1
   3   4  -6 13.1958 0.15156   1
   3   4  -5 21.5251 0.16539   1
   3   4  -4 5.90254 0.09318   1
   3   4  -3  16.081 0.11908   1
   3   4  -2  19.699 0.15178   1
   3   4  -1 18.5704 0.14135   1
   3   4   0 8.03306 0.08776   1
   3   4   1  18.432 0.12532   1
   3   4   2 19.6117 0.11447   1
   3   4   3 16.1341 0.09731   1
   3   4   4 6.08769 0.05831   1
   3   4   5 21.3441    0.16   1
   3   4   6 12.6835 0.09619   1
   3   4   7 7.96367 0.08099   1
   3   4   8 12.3919 0.09603   1
   3   4   9 10.8729 0.09933   1
   3   4  10 6.80808 0.07858   1
   3   4  11 5.87537 0.06723   1
   3   4  12 10.7177  0.0989   1
   3   4  13 3.02159 0.11749   1
   3   4  14 8.31505 0.08358   1
   3   4  15 8.29819 0.09882   1
   3   4  16 4.51664  0.1428   1
   3   5 -15 4.44747  0.1158   1
   3   5 -14 4.36921 0.11558   1
   3   5 -13 8.95656 0.10495   1
   3   5 -12 5.30754 0.10268   1
   3   5 -11 10.3692 0.14128   1
   3   5 -10 3.07409 0.10735   1
   3   5  -9 9.85748 0.10094   1
   3   5  -8 4.66583 0.10073   1
   3   5  -7 6.48305 0.09641   1
   3   5  -6 15.1532 0.13198   1
   3   5  -5 18.4545 0.16825   1
   3   5  -4 14.0342 0.24939   1
   3   5  -3 5.53353 0.09217   1
   3   5  -2 28.0093 0.44271   1
   3   5  -1 15.6949 0.12679   1
   3   5   0 1.55885 0.10585   1
   3   5   1 15.8849  0.1407   1
   3   5   2 28.2266  0.4804   1
   3   5   3 5.71927 0.05508   1
   3   5   4 14.0453 0.11142   1
   3   5   5 18.1747 0.13838   1
   3   5   6  15.105 0.12314   1
   3   5   7 6.43273 0.08861   1
   3   5   8 4.38976  0.0729   1
   3   5   9 9.61197 0.14877   1
   3   5  10 3.22645 0.09918   1
   3   5  11 10.1074  0.1019   1
   3   5  12 5.13712 0.09441   1
   3   5  13 8.59651 0.10004   1
   3   5  14 4.55522 0.17453   1
   3   5  15 4.39545 0.16267   1
   3   6 -14 7.28629 0.10499   1
   3   6 -13 4.68081 0.11536   1
   3   6 -12 12.7687 0.11943   1
   3   6 -11 8.91908 0.13959   1
   3   6 -10 18.3401 0.14286   1
   3   6  -9 15.2555 0.12651   1
   3   6  -8 12.9842 0.11514   1
   3   6  -7 2.46374 0.11974   1
   3   6  -6 11.1265 0.12852   1
   3   6  -5 12.5682 0.12054   1
   3   6  -4 7.16659 0.09837   1
   3   6  -3 8.17924  0.0972   1
   3   6  -2 14.8216 0.12988   1
   3   6  -1 7.27805  0.0845   1
   3   6   0 1.80831 0.09125   1
   3   6   1 7.42092 0.07816   1
   3   6   2 14.9328 0.10882   1
   3   6   3 7.76144 0.08955   1
   3   6   4 7.11337  0.0724   1
   3   6   5 12.5984 0.09843   1
   3   6   6 11.2929 0.09475   1
   3   6   7 2.54362 0.12187   1
   3   6   8 12.8316 0.15314   1
   3   6   9 15.1377 0.12452   1
   3   6  10 18.4149 0.16617   1
   3   6  11 8.95042  0.1553   1
   3   6  12 12.4916 0.17572   1
   3   6  13 4.33359 0.16037   1
   3   6  14 7.49533  0.1561   1
   3   7 -13 5.70088 0.15261   1
   3   7 -12 8.07156 0.10655   1
   3   7 -11 6.65132 0.13381   1
   3   7 -10  3.1273 0.11671   1
   3   7  -9 5.72713 0.12921   1
   3   7  -8 7.51532  0.0998   1
   3   7  -7 9.30699 0.11389   1
   3   7  -6 15.6681 0.14105   1
   3   7  -5 8.76242 0.10899   1
   3   7  -4 9.54149 0.12682   1
   3   7  -3 5.43415 0.11133   1
   3   7  -2 18.4857 0.15147   1
   3   7  -1 14.6874  0.1903   1
   3   7   0 6.88331 0.09443   1
   3   7   1 15.0077 0.12427   1
   3   7   2 18.6831 0.19804   1
   3   7   3 5.03686 0.14592   1
   3   7   4 9.22063 0.09435   1
   3   7   5 8.55745  0.0818   1
   3   7   6 15.6032 0.10671   1
   3   7   7 9.60417 0.12234   1
   3   7   8 7.66746 0.15911   1
   3   7   9  5.6285 0.12881   1
   3   7  10 2.72029 0.13418   1
   3   7  11 6.44205 0.20878   1
   3   7  12  7.8924 0.20716   1
   3   7  13  5.5263 0.15743   1
   3   8 -12 2.71662 0.13068   1
   3   8 -11 2.22711 0.13021   1
   3   8 -10  9.3723  0.1115   1
   3   8  -9 2.30434 0.12585   1
   3   8  -8  8.4006 0.11428   1
   3   8  -7 7.10634 0.13087   1
   3   8  -6 3.94335 0.12426   1
   3   8  -5  14.897 0.13929   1
   3   8  -4 12.5316  0.1572   1
   3   8  -3  10.693 0.13373   1
   3   8  -2 12.0171 0.16268   1
   3   8  -1 13.1761 0.14003   1
   3   8   0 1.55242 0.12561   1
   3   8   1  13.189 0.24755   1
   3   8   2 11.5909 0.15443   1
   3   8   3 10.8088 0.11842   1
   3   8   4 12.6325 0.20384   1
   3   8   5 14.7993 0.12737   1
   3   8   6 4.13642 0.10516   1
   3   8   7 7.01285 0.12905   1
   3   8   8  8.1074 0.13568   1
   3   8   9 2.21359 0.16715   1
   3   8  10  9.4414 0.19012   1
   3   8  11 2.45764 0.27465   1
   3   8  12 3.03645 0.17455   1
   3   9 -11  15.021 0.28427   1
   3   9 -10 4.40227 0.13856   1
   3   9  -9 10.1059 0.11577   1
   3   9  -8 12.1955 0.22672   1
   3   9  -7  7.3437 0.11779   1
   3   9  -6   8.245 0.11704   1
   3   9  -5  4.9689 0.18616   1
   3   9  -3 12.8953 0.15199   1
   3   9  -2 7.88289 0.17443   1
   3   9  -1 5.31601 0.21821   1
   3   9   0 4.86826  0.1366   1
   3   9   1  5.0636 0.20835   1
   3   9   2   7.504 0.14192   1
   3   9   3 12.7389 0.20881   1
   3   9   4 0.92195 0.19524   1
   3   9   5 4.71487 0.10181   1
   3   9   6 8.10123 0.12838   1
   3   9   7 7.52396 0.09968   1
   3   9   8 12.2756 0.16048   1
   3   9   9 9.75141 0.28406   1
   3   9  10 4.08289 0.16043   1
   3   9  11 14.8825 0.22577   1
   3  10  -9 4.07431 0.29698   1
   3  10  -8 9.37017 0.11633   1
   3  10  -7 2.94449 0.14264   1
   3  10  -6  9.0967 0.12477   1
   3  10  -5 9.39681 0.14154   1
   3  10  -4 3.78153 0.15205   1
   3  10  -3 11.7843 0.17693   1
   3  10  -2 5.55158 0.22696   1
   3  10  -1 9.11153 0.20633   1
   3  10   0 6.91086 0.20041   1
   3  10   1 9.34131 0.20822   1
   3  10   2 5.61249 0.23074   1
   3  10   3 11.5295 0.32915   1
   3  10   4 3.68239 0.15886   1
   3  10   5   9.245 0.33856   1
   3  10   6 8.66487  0.1333   1
   3  10   7 3.15753 0.14727   1
   3  10   8 9.16624 0.33765   1
   3  11  -6  4.8518 0.31947   1
   3  11  -5  8.0697 0.14375   1
   3  11  -4 8.46818 0.16533   1
   3  11  -3 3.68782 0.54233   1
   3  11  -2 8.11911 0.22293   1
   3  11  -1 7.76466 0.25114   1
   3  11   0 10.4614  0.3924   1
   3  11   1 7.54718 0.24645   1
   3  11   2 8.11419 0.21259   1
   3  11   3 3.43511 0.17176   1
   3  11   4 8.68677 0.21642   1
   3  11   5 7.83199 0.21897   1
   3  11   6 4.47325 0.46387   1
   4   0   0 5.15752 0.06398   1
   4   0   1  13.403 0.07983   1
   4   0   2 26.9256 0.44177   1
   4   0   3 4.20595 0.07133   1
   4   0   4 25.8643 0.36344   1
   4   0   5 9.79439  0.0827   1
   4   0   6 30.7797 0.32879   1
   4   0   7 8.18046 0.07762   1
   4   0   8 17.2163 0.11617   1
   4   0   9 15.4544 0.10871   1
   4   0  10 5.48999 0.07195   1
   4   0  11 11.0784 0.09072   1
   4   0  12 6.91809 0.08745   1
   4   0  13 4.09756 0.10372   1
   4   0  14 5.86686 0.09886   1
   4   0  15 2.49199 0.14848   1
   4   0  16 10.0548  0.2919   1
   4   1 -16 7.23602 0.13405   1
   4   1 -14 9.13893 0.11052   1
   4   1 -13 6.44826 0.10003   1
   4   1 -12 12.0275  0.1085   1
   4   1 -11 8.34865 0.09283   1
   4   1 -10 27.5107 0.17157   1
   4   1  -9 9.87168 0.08408   1
   4   1  -8 15.9145 0.12316   1
   4   1  -7 17.4863 0.11752   1
   4   1  -6 10.0618  0.0974   1
   4   1  -5 3.98246 0.09165   1
   4   1  -3 12.4012 0.08306   1
   4   1  -2 8.41843 0.06711   1
   4   1  -1 17.6003 0.10653   1
   4   1   0 10.2489 0.07269   1
   4   1   1 17.6627 0.09993   1
   4   1   2 8.10432 0.05614   1
   4   1   3 12.5439 0.06896   1
   4   1   4 24.6495  0.3996   1
   4   1   5 3.72827 0.06303   1
   4   1   6 10.1696  0.0885   1
   4   1   7   17.40 0.12672   1
   4   1   8 15.5926 0.10678   1
   4   1   9 9.47523 0.08654   1
   4   1  10 27.5831 0.18616   1
   4   1  11 8.38868 0.08404   1
   4   1  12 12.5483 0.10479   1
   4   1  13 6.34035 0.08201   1
   4   1  14 9.08185  0.1046   1
   4   1  16 7.17147 0.26982   1
   4   2 -15 4.72017 0.15995   1
   4   2 -14 1.73205 0.13279   1
   4   2 -13 17.5248 0.15207   1
   4   2 -12 6.08605 0.10845   1
   4   2 -11  15.094 0.12256   1
   4   2 -10 13.0238   0.124   1
   4   2  -9 10.4733  0.0993   1
   4   2  -8 1.11355 0.09429   1
   4   2  -7 23.6292 0.15003   1
   4   2  -6 15.5416 0.11003   1
   4   2  -5  13.277 0.09716   1
   4   2  -4 11.4066 0.08855   1
   4   2  -3 18.1306 0.11969   1
   4   2  -2 18.3123 0.11058   1
   4   2  -1 14.2776 0.09771   1
   4   2   0 12.3875 0.09606   1
   4   2   1 14.4295 0.08559   1
   4   2   2 18.2014 0.09175   1
   4   2   3 17.6771 0.10183   1
   4   2   4 11.1279 0.06335   1
   4   2   5 12.9325 0.07694   1
   4   2   6 15.6243 0.08256   1
   4   2   7 23.6201 0.14881   1
   4   2   8 0.83666 0.11952   1
   4   2   9 10.8858 0.11345   1
   4   2  10 13.0027 0.11959   1
   4   2  11 14.9496 0.11539   1
   4   2  12 6.17333 0.07694   1
   4   2  13 17.1006 0.12836   1
   4   2  14 1.85472 0.11862   1
   4   2  15 4.80208 0.11349   1
   4   3 -15 6.39296 0.10324   1
   4   3 -14 6.46297 0.10831   1
   4   3 -13 6.54294 0.09858   1
   4   3 -12 4.00375 0.13862   1
   4   3 -11 5.70351 0.09205   1
   4   3 -10 3.25423 0.10448   1
   4   3  -9 1.50997 0.12252   1
   4   3  -8 5.19711 0.09332   1
   4   3  -7 4.95278 0.08581   1
   4   3  -6 10.4704 0.09742   1
   4   3  -5 20.7723 0.14779   1
   4   3  -4 9.22659 0.07695   1
   4   3  -3 38.8537 0.65386   1
   4   3  -2 3.25423 0.08297   1
   4   3  -1 8.00625 0.07119   1
   4   3   0 23.6557 0.37327   1
   4   3   1 8.04177 0.06964   1
   4   3   2 3.03315 0.04451   1
   4   3   3 38.2441 0.50831   1
   4   3   4 9.16679 0.07036   1
   4   3   5 20.4746 0.10305   1
   4   3   6 10.2708 0.07108   1
   4   3   7  4.5913  0.0599   1
   4   3   8 4.90714 0.06623   1
   4   3   9 1.47986 0.09122   1
   4   3  10 3.32114 0.07678   1
   4   3  11 5.76281 0.07895   1
   4   3  12 4.08779 0.13455   1
   4   3  13 6.45601 0.08984   1
   4   3  14 6.58787  0.1055   1
   4   3  15 6.26099 0.17888   1
   4   4 -15 1.61864 0.28419   1
   4   4 -14  9.4186 0.10989   1
   4   4 -13 10.8411   0.113   1
   4   4 -11 19.1431 0.20086   1
   4   4 -10 3.96106 0.10856   1
   4   4  -9 12.8125  0.1159   1
   4   4  -8 8.64176 0.09952   1
   4   4  -7 12.1198  0.1085   1
   4   4  -6 10.3513 0.09999   1
   4   4  -5 5.05668 0.10382   1
   4   4  -4 10.4341  0.0968   1
   4   4  -3  22.227 0.22383   1
   4   4  -2 8.14187  0.1044   1
   4   4  -1 13.4224 0.11138   1
   4   4   0 33.8858 0.35929   1
   4   4   1 13.4577 0.11369   1
   4   4   2 7.85175 0.07896   1
   4   4   3 22.3435 0.20834   1
   4   4   4 10.5518  0.0943   1
   4   4   5 5.28772 0.07281   1
   4   4   6 10.1936 0.08976   1
   4   4   7 12.0901 0.13151   1
   4   4   8 8.36242 0.07773   1
   4   4   9 12.4024 0.09837   1
   4   4  10 4.02989  0.0732   1
   4   4  11   18.98 0.13804   1
   4   4  13 10.6061 0.23336   1
   4   4  14 9.39681 0.13143   1
   4   4  15 1.36748  0.2011   1
   4   5 -14 8.23954 0.12076   1
   4   5 -13 6.27853 0.10432   1
   4   5 -12 10.3179 0.11194   1
   4   5 -11 5.95231 0.10164   1
   4   5 -10 14.6748 0.17615   1
   4   5  -9 5.41387 0.10067   1
   4   5  -8 14.7875 0.12443   1
   4   5  -7 4.75184 0.10627   1
   4   5  -6 10.0896 0.10208   1
   4   5  -5 6.33246 0.09949   1
   4   5  -4 20.5195 0.16423   1
   4   5  -3 6.64379 0.09407   1
   4   5  -2 5.41664 0.12185   1
   4   5  -1 18.3115 0.13189   1
   4   5   0 5.64358 0.07708   1
   4   5   1 18.0158 0.15875   1
   4   5   2 5.04777 0.06637   1
   4   5   3 6.68132 0.07109   1
   4   5   4 20.6995 0.18213   1
   4   5   5 6.35059 0.07007   1
   4   5   6 9.68246 0.08934   1
   4   5   7 4.66905 0.07068   1
   4   5   8  14.986 0.18017   1
   4   5   9 5.34603 0.09166   1
   4   5  10 14.6376 0.14791   1
   4   5  11 5.65685 0.11667   1
   4   5  12 10.2562 0.21353   1
   4   5  13 6.42184 0.14248   1
   4   5  14 8.28975 0.13028   1
   4   6 -13 4.64973 0.12366   1
   4   6 -12 7.74145  0.1563   1
   4   6 -11 5.76975 0.10746   1
   4   6 -10 3.51852 0.12647   1
   4   6  -9   6.755 0.11103   1
   4   6  -8 1.68226 0.16644   1
   4   6  -7 6.91375 0.09835   1
   4   6  -6 13.8156 0.13246   1
   4   6  -5 4.21307 0.11868   1
   4   6  -4 25.4189 0.19611   1
   4   6  -3 6.44127 0.10557   1
   4   6  -2 12.7102 0.12037   1
   4   6  -1 10.8853 0.12953   1
   4   6   0 19.9078  0.1738   1
   4   6   1  10.895 0.11794   1
   4   6   2 13.1719 0.11122   1
   4   6   3 6.49384 0.09625   1
   4   6   4 25.8805 0.21638   1
   4   6   5 4.27785 0.08182   1
   4   6   6 13.4566 0.10775   1
   4   6   7 6.84325 0.09718   1
   4   6   8 1.78885 0.13137   1
   4   6   9 6.91303 0.11138   1
   4   6  10 3.87943 0.18302   1
   4   6  11 5.68243 0.20238   1
   4   6  12  7.5921  0.1844   1
   4   6  13 4.67974  0.1592   1
   4   7 -12 13.1328 0.13744   1
   4   7 -11 5.95651 0.13263   1
   4   7 -10 15.4104 0.14828   1
   4   7  -9 9.14932 0.10984   1
   4   7  -8 11.0454 0.11498   1
   4   7  -7  10.964 0.31193   1
   4   7  -6 4.34166 0.16929   1
   4   7  -5 7.03989  0.1108   1
   4   7  -4 12.5048 0.12795   1
   4   7  -3 13.3023 0.14659   1
   4   7  -2 11.6245 0.12087   1
   4   7  -1  9.9905 0.12412   1
   4   7   0 2.90345 0.11538   1
   4   7   1 10.3634 0.14184   1
   4   7   2 11.2792 0.14363   1
   4   7   3  12.975  0.1133   1
   4   7   4 12.6677  0.1342   1
   4   7   5 7.02068 0.09543   1
   4   7   6 4.46542  0.0963   1
   4   7   7 11.3833 0.14583   1
   4   7   8 10.7787 0.14009   1
   4   7   9  9.1586 0.12229   1
   4   7  10  15.345 0.15575   1
   4   7  11 6.05145 0.12724   1
   4   7  12 13.3686 0.15073   1
   4   8 -11 5.38702 0.21719   1
   4   8 -10 12.6416 0.13962   1
   4   8  -9 7.37631 0.11456   1
   4   8  -8 4.08534 0.12361   1
   4   8  -7 14.8037 0.14422   1
   4   8  -6 5.78878 0.13043   1
   4   8  -5 10.3687 0.12441   1
   4   8  -4 11.1589 0.28856   1
   4   8  -3 5.02195 0.14934   1
   4   8  -2 5.64358 0.16302   1
   4   8  -1 6.09754 0.19106   1
   4   8   0  4.7697 0.29247   1
   4   8   1 6.15305 0.19178   1
   4   8   2 5.53715  0.1508   1
   4   8   3  4.5793 0.10154   1
   4   8   4 11.4245 0.16675   1
   4   8   5 9.89293 0.13141   1
   4   8   6 5.42679 0.09582   1
   4   8   7 14.7024 0.13467   1
   4   8   8  3.8704 0.17828   1
   4   8   9 7.62955 0.11862   1
   4   8  10 12.2882 0.14119   1
   4   8  11 5.21632 0.20129   1
   4   9  -9 5.72626 0.20782   1
   4   9  -8 1.45945 0.16445   1
   4   9  -7 8.82327 0.12637   1
   4   9  -6 4.59021 0.13616   1
   4   9  -5 9.61093 0.12642   1
   4   9  -4 3.97618 0.15341   1
   4   9  -3 16.5632 0.17297   1
   4   9  -2 2.39374 0.25692   1
   4   9  -1 9.79234 0.21292   1
   4   9   0 9.44881 0.21008   1
   4   9   1  9.9935 0.21214   1
   4   9   2 1.78885 0.27392   1
   4   9   3 16.5415 0.25512   1
   4   9   4 4.02741 0.24209   1
   4   9   5 9.30323 0.22627   1
   4   9   6 4.57056 0.24286   1
   4   9   7 8.30181 0.21562   1
   4   9   8 1.28841 0.28718   1
   4   9   9 5.94559  0.1581   1
   4  10  -6 11.2045 0.14057   1
   4  10  -5 4.23674 0.15932   1
   4  10  -4 2.75681 0.20313   1
   4  10  -3 8.89157 0.14171   1
   4  10  -2 7.77946 0.21338   1
   4  10  -1  6.9728 0.21154   1
   4  10   0 12.5024 0.23436   1
   4  10   1  7.1854 0.21224   1
   4  10   2 7.81601 0.21238   1
   4  10   3 8.45459 0.21645   1
   4  10   4  2.9189 0.26037   1
   4  10   5 4.46542 0.25529   1
   4  10   6 11.1333 0.61078   1
   4  11  -1 5.60981 0.39217   1
   5   0   1 9.13674 0.07661   1
   5   0   2 7.91518 0.07201   1
   5   0   3 6.94046 0.07348   1
   5   0   4 8.80114 0.07897   1
   5   0   5 15.2964 0.11048   1
   5   0   6 2.88097 0.15273   1
   5   0   7 5.62672 0.08086   1
   5   0   8 5.86515 0.08269   1
   5   0   9  17.929 0.13414   1
   5   0  10 10.3281 0.09924   1
   5   0  11 12.0967 0.14177   1
   5   0  12  7.6909 0.09362   1
   5   0  13 11.5109 0.13509   1
   5   0  14 1.47986 0.14528   1
   5   1 -14 4.81352  0.1153   1
   5   1 -13 5.69649 0.09743   1
   5   1 -12 7.25741 0.09645   1
   5   1 -11 3.88973 0.11055   1
   5   1 -10 6.81029 0.09177   1
   5   1  -9 2.48797 0.09847   1
   5   1  -8 8.56329 0.09109   1
   5   1  -7 7.52861 0.09431   1
   5   1  -6 8.48705 0.08837   1
   5   1  -5 13.5643 0.10948   1
   5   1  -4 15.1806 0.10803   1
   5   1  -3 15.3075 0.09995   1
   5   1  -2 2.80713 0.06947   1
   5   1  -1 14.3812 0.10152   1
   5   1   0 10.5029  0.1033   1
   5   1   1 14.2092 0.09149   1
   5   1   2 2.56125 0.07028   1
   5   1   3  15.399 0.10715   1
   5   1   4 15.3886 0.10787   1
   5   1   5 13.3735 0.10955   1
   5   1   6  8.3666 0.09502   1
   5   1   7 7.58617  0.0837   1
   5   1   8 8.60872 0.09758   1
   5   1   9 2.45967 0.11587   1
   5   1  10  6.5437 0.11385   1
   5   1  11 3.91663 0.10723   1
   5   1  12    7.40 0.09865   1
   5   1  13 5.58032  0.1559   1
   5   1  14 4.70638 0.17954   1
   5   2 -14  2.9189 0.11819   1
   5   2 -13 5.25452 0.10562   1
   5   2 -12 5.54346 0.12808   1
   5   2 -11 3.17648 0.11176   1
   5   2 -10    2.80 0.10714   1
   5   2  -9 10.0837  0.1081   1
   5   2  -8 8.55278 0.11166   1
   5   2  -7 4.76445 0.08815   1
   5   2  -6  6.7624 0.08651   1
   5   2  -5 11.4013 0.10087   1
   5   2  -4 14.2194 0.11393   1
   5   2  -3 10.9353 0.10745   1
   5   2  -2 16.1552 0.10306   1
   5   2  -1 6.70373 0.07459   1
   5   2   0 15.4357 0.11564   1
   5   2   1 7.02424 0.07616   1
   5   2   2 16.0661 0.11017   1
   5   2   3 10.8757 0.07218   1
   5   2   4 14.1912  0.0983   1
   5   2   5 11.3785 0.09711   1
   5   2   6  6.7424 0.07045   1
   5   2   7  4.5299 0.07395   1
   5   2   8 8.53522 0.08729   1
   5   2   9 10.0757 0.11414   1
   5   2  10 2.84956 0.12809   1
   5   2  11 2.87924 0.11114   1
   5   2  12 5.53715 0.11558   1
   5   2  13  5.2144 0.18986   1
   5   2  14 2.78747 0.18117   1
   5   3 -14 7.46726 0.12588   1
   5   3 -13  5.7463 0.10702   1
   5   3 -12 13.6026 0.12314   1
   5   3 -11   7.508 0.10122   1
   5   3 -10 12.5956 0.11591   1
   5   3  -9 7.85111 0.09744   1
   5   3  -8 11.5858 0.10919   1
   5   3  -7 2.66833 0.13679   1
   5   3  -6 12.2597 0.10767   1
   5   3  -5 4.80729 0.12377   1
   5   3  -4 10.4067  0.1081   1
   5   3  -3  7.1861 0.08976   1
   5   3  -2 10.4919 0.12343   1
   5   3  -1 9.18858 0.08217   1
   5   3   0 3.08058 0.07142   1
   5   3   1  9.0471 0.09229   1
   5   3   2 10.4862  0.0925   1
   5   3   3 7.06824 0.07569   1
   5   3   4 10.5821 0.07465   1
   5   3   5 4.84768 0.08458   1
   5   3   6 12.1852 0.09438   1
   5   3   7 2.78029 0.07373   1
   5   3   8 11.3146  0.0928   1
   5   3   9 7.68895 0.09039   1
   5   3  10 12.5936 0.12189   1
   5   3  11 7.44043 0.14112   1
   5   3  12 13.5823 0.16529   1
   5   3  13 5.93801 0.15746   1
   5   3  14 7.71946 0.19431   1
   5   4 -13 2.05183 0.13646   1
   5   4 -12 1.45602  0.1511   1
   5   4 -11 7.53658 0.10549   1
   5   4 -10 4.78748 0.17546   1
   5   4  -9 7.03562 0.11371   1
   5   4  -8  2.5318 0.11652   1
   5   4  -7  6.4591 0.09521   1
   5   4  -6 10.2995 0.11554   1
   5   4  -5 6.19112 0.11549   1
   5   4  -4 15.7344 0.15031   1
   5   4  -3 13.0931 0.12297   1
   5   4  -2 11.5767 0.13173   1
   5   4  -1 3.95727 0.14278   1
   5   4   0  11.597 0.14918   1
   5   4   1  4.5111 0.10308   1
   5   4   2 11.3679   0.106   1
   5   4   3 13.0265 0.11668   1
   5   4   4 15.4629 0.11706   1
   5   4   5 6.26179 0.06148   1
   5   4   6  10.265 0.10716   1
   5   4   7 6.34902 0.08427   1
   5   4   8 2.46374 0.09538   1
   5   4   9 7.04344 0.11145   1
   5   4  10 4.83322 0.17483   1
   5   4  11  7.2952 0.12268   1
   5   4  12 1.10454 0.20823   1
   5   4  13 2.17486 0.15633   1
   5   5 -12  2.8178 0.12599   1
   5   5 -11 1.91833 0.14075   1
   5   5 -10 8.32706 0.10748   1
   5   5  -9  5.4074 0.11466   1
   5   5  -8 6.23779  0.1026   1
   5   5  -7 5.67098 0.10316   1
   5   5  -6 10.4091 0.12729   1
   5   5  -5 10.0837 0.11653   1
   5   5  -4 6.64154  0.1054   1
   5   5  -3 8.74128 0.10639   1
   5   5  -2  9.2957 0.15437   1
   5   5  -1 17.1129 0.16187   1
   5   5   0 1.70294  0.1057   1
   5   5   1 16.7687 0.15744   1
   5   5   2 9.29247 0.13559   1
   5   5   3 8.75271 0.09768   1
   5   5   4 6.63099 0.10783   1
   5   5   5 9.98349 0.10668   1
   5   5   6 10.1351 0.09521   1
   5   5   7 5.73236 0.09595   1
   5   5   8  6.4039 0.10619   1
   5   5   9 5.29245 0.12471   1
   5   5  10 8.20061 0.11585   1
   5   5  11 1.97484 0.17976   1
   5   5  12 2.66646 0.21002   1
   5   6 -11 10.4034 0.15187   1
   5   6 -10 11.9754 0.13444   1
   5   6  -9 8.86848 0.11107   1
   5   6  -8  1.0583 0.18426   1
   5   6  -7  12.746 0.17339   1
   5   6  -5 7.14003 0.11274   1
   5   6  -4  6.2434 0.21142   1
   5   6  -3 8.24136 0.14439   1
   5   6  -2 5.87282 0.12004   1
   5   6  -1 3.87685 0.12768   1
   5   6   0 5.59911 0.16253   1
   5   6   1 3.83536 0.10951   1
   5   6   2   6.005  0.1582   1
   5   6   3 8.13204 0.12174   1
   5   6   4 6.20806 0.09987   1
   5   6   5 7.17774 0.09822   1
   5   6   6 0.86023 0.17437   1
   5   6   7 12.2209  0.2999   1
   5   6   9 8.58371 0.11941   1
   5   6  10 11.9172 0.13762   1
   5   6  11  10.263 0.13349   1
   5   7 -10 5.26878 0.12906   1
   5   7  -9 1.17473 0.18302   1
   5   7  -8 7.93914 0.11084   1
   5   7  -7 7.99312 0.12135   1
   5   7  -6  8.4729 0.12038   1
   5   7  -5 9.54935 0.13928   1
   5   7  -4 3.72559 0.17581   1
   5   7  -3 12.0864 0.32309   1
   5   7  -2    8.10 0.24074   1
   5   7  -1 7.99187 0.18707   1
   5   7   2  8.1074 0.23312   1
   5   7   3 12.4435 0.17881   1
   5   7   4 3.72424 0.56119   1
   5   7   5  9.5828 0.20871   1
   5   7   6 8.52995 0.12427   1
   5   7   7 7.70714 0.12521   1
   5   7   8  7.6302 0.11206   1
   5   7  10 5.41202 0.24575   1
   5   8  -9 3.55528 0.33049   1
   5   8  -8 4.47884 0.12726   1
   5   8  -7 5.61605 0.13711   1
   5   8  -6 6.17819 0.12463   1
   5   8  -5 3.20312 0.15922   1
   5   8  -4 6.44283 0.14047   1
   5   8  -3 8.77496 0.13846   1
   5   8  -2 11.4752 0.17429   1
   5   8  -1 5.28583 0.17878   1
   5   8   0 10.1415 0.16566   1
   5   8   1 5.47996 0.17975   1
   5   8   2 11.4634 0.17185   1
   5   8   3   8.882 0.23869   1
   5   8   4 6.16766 0.21807   1
   5   8   5 2.90861  0.2527   1
   5   8   6  6.0075 0.25551   1
   5   8   7 5.71402 0.57753   1
   5   8   8 4.41022 0.32992   1
   5   8   9 3.04795 0.33465   1
   5   9  -6 8.63366 0.32721   1
   5   9  -5 3.59861 0.16256   1
   5   9  -4 6.41794 0.14179   1
   5   9  -3 6.27774 0.19673   1
   5   9  -1 3.47419 0.18997   1
   5   9   0 5.24118 0.18507   1
   5   9   1 3.51283 0.18931   1
   5   9   3 6.28808 0.25206   1
   5   9   4 6.26578 0.26413   1
   5   9   5 4.46206 0.57261   1
   5   9   6 8.96047 0.30411   1
   5  10   1 2.82666 0.33962   1
   6   0   0 14.5949 0.16478   1
   6   0   1 20.5696 0.15921   1
   6   0   2 4.62169 0.07465   1
   6   0   3 9.95942 0.09589   1
   6   0   4 4.82908 0.13253   1
   6   0   6  3.7027 0.09588   1
   6   0   7 11.4612 0.10514   1
   6   0   8 11.7618  0.1186   1
   6   0   9 13.9399 0.11801   1
   6   0  11 9.11263 0.14979   1
   6   0  12 3.96611  0.1475   1
   6   1 -12 9.54306 0.11946   1
   6   1 -11 9.40106 0.11648   1
   6   1 -10  2.5318 0.12639   1
   6   1  -9 4.37379  0.1086   1
   6   1  -8  13.375 0.11514   1
   6   1  -7 16.0212 0.14106   1
   6   1  -6 11.0345 0.10331   1
   6   1  -5 3.48999 0.10745   1
   6   1  -4 17.0942 0.13045   1
   6   1  -3 7.57958  0.0752   1
   6   1  -2 4.81248 0.07584   1
   6   1  -1  4.1497 0.07109   1
   6   1   0 2.37487 0.11369   1
   6   1   1 4.12068 0.08858   1
   6   1   2 4.61736 0.08555   1
   6   1   3 7.50866 0.10787   1
   6   1   4 16.9735 0.13727   1
   6   1   5  3.8092 0.09713   1
   6   1   6 11.0481 0.10952   1
   6   1   7 16.0714 0.13969   1
   6   1   8 13.4007 0.12425   1
   6   1   9 4.08534 0.09546   1
   6   1  10 2.42693 0.12773   1
   6   1  11 9.63691 0.13334   1
   6   1  12  9.2228 0.56761   1
   6   2 -12 5.62761 0.20257   1
   6   2 -11 3.36303 0.12935   1
   6   2 -10 15.4855 0.16176   1
   6   2  -9 6.85857 0.10935   1
   6   2  -8 9.37283 0.12696   1
   6   2  -7 5.84466 0.09581   1
   6   2  -6 4.28019 0.10747   1
   6   2  -5 14.9325 0.12188   1
   6   2  -4 12.6281 0.12195   1
   6   2  -3   14.01 0.12812   1
   6   2  -2 4.08901  0.0966   1
   6   2  -1 3.71618 0.09149   1
   6   2   0 7.19166 0.10776   1
   6   2   1 4.03361 0.07561   1
   6   2   2 4.20119 0.09759   1
   6   2   3 14.0858 0.11607   1
   6   2   4 12.7059 0.12317   1
   6   2   5 15.1747 0.12257   1
   6   2   6 4.57165 0.11156   1
   6   2   7 5.53895 0.08485   1
   6   2   8 8.92076 0.10201   1
   6   2   9   6.772 0.11001   1
   6   2  10 15.2276 0.21737   1
   6   2  11 3.17962 0.13681   1
   6   2  12 5.95063 0.14284   1
   6   3 -12 6.28888 0.30928   1
   6   3 -11 4.71381 0.16759   1
   6   3 -10 3.99625 0.12762   1
   6   3  -9 2.51197 0.13734   1
   6   3  -8 8.04239 0.11253   1
   6   3  -7 5.79569 0.11647   1
   6   3  -6 11.2872 0.11518   1
   6   3  -5 5.57584 0.09326   1
   6   3  -4 0.78102 0.17925   1
   6   3  -3 7.63151 0.09304   1
   6   3  -2 11.1068 0.11525   1
   6   3  -1 11.8903 0.11858   1
   6   3   0  26.817 0.18347   1
   6   3   1 12.0632 0.11564   1
   6   3   2 11.0182 0.10982   1
   6   3   3 7.49933 0.08534   1
   6   3   4 1.11355 0.11225   1
   6   3   5 5.58032 0.08333   1
   6   3   6 11.2156  0.1061   1
   6   3   7 6.12127 0.09067   1
   6   3   8 8.16211 0.11455   1
   6   3   9 2.54755 0.13346   1
   6   3  10 3.92301 0.18736   1
   6   3  11 4.12068 0.15046   1
   6   3  12   6.063  0.1839   1
   6   4 -11 2.27156 0.14527   1
   6   4 -10 6.23859 0.11782   1
   6   4  -9 5.67098  0.1446   1
   6   4  -8 8.20122 0.11889   1
   6   4  -7 3.84968 0.12728   1
   6   4  -6 11.0095 0.12353   1
   6   4  -5 11.2152 0.12394   1
   6   4  -4 7.00357 0.10852   1
   6   4  -3 17.2728 0.16992   1
   6   4  -2 7.17147 0.11922   1
   6   4  -1 3.85746 0.15036   1
   6   4   0 2.70555 0.15893   1
   6   4   1 3.83667 0.21633   1
   6   4   2 7.28423 0.12287   1
   6   4   3 17.0561 0.14394   1
   6   4   4 6.96563 0.09332   1
   6   4   5  11.277 0.11129   1
   6   4   6 11.1171 0.12413   1
   6   4   7 3.98999 0.13534   1
   6   4   8 8.13757 0.11428   1
   6   4   9 5.65951 0.12545   1
   6   4  10 6.18628 0.22227   1
   6   4  11 1.90788 0.17035   1
   6   5 -10 2.31517 0.15118   1
   6   5  -9 10.5418 0.14229   1
   6   5  -8 6.88041 0.11773   1
   6   5  -7 4.62061 0.14717   1
   6   5  -6 7.03776 0.13143   1
   6   5  -5 3.07083 0.18236   1
   6   5  -4 11.1023  0.1252   1
   6   5  -3 5.45985 0.12546   1
   6   5  -2 6.79191  0.2503   1
   6   5  -1 14.5722  0.2196   1
   6   5   0  4.9366 0.15598   1
   6   5   1 14.5485 0.18077   1
   6   5   2 6.69029 0.14125   1
   6   5   3 5.84551 0.15054   1
   6   5   4 10.7995 0.52502   1
   6   5   5 2.99666 0.13015   1
   6   5   6 7.22357 0.14328   1
   6   5   7 4.24264 0.16264   1
   6   5   8 6.31506 0.12431   1
   6   5   9 10.5418 0.14751   1
   6   5  10 1.68523 0.23439   1
   6   6  -9 5.83009 0.15609   1
   6   6  -8 4.74236  0.1708   1
   6   6  -7 8.89944 0.13091   1
   6   6  -6 5.52178 0.13492   1
   6   6  -5 2.93598 0.15668   1
   6   6  -4 2.86356 0.13794   1
   6   6  -3 9.15969 0.13647   1
   6   6  -2 13.3682 0.27229   1
   6   6  -1 13.3929 0.23333   1
   6   6   0 3.17805 0.28319   1
   6   6   1 13.1164 0.46659   1
   6   6   2 13.2944 0.31818   1
   6   6   3 8.99889  0.1528   1
   6   6   4  2.8688 0.19346   1
   6   6   5 3.18748 0.16314   1
   6   6   6 5.31789 0.15044   1
   6   6   7 9.13674  0.1494   1
   6   6   8 5.50999 0.32577   1
   6   6   9 5.27447 0.30524   1
   6   7  -7 8.13634 0.12905   1
   6   7  -6 9.94887 0.13017   1
   6   7  -5 11.2681 0.14377   1
   6   7  -4 9.72677 0.12697   1
   6   7  -3 3.48999 0.27651   1
   6   7  -2 2.19089  0.2944   1
   6   7  -1 1.62481 0.21849   1
   6   7   0 6.27057 0.16745   1
   6   7   1 1.37113 0.23703   1
   6   7   2 2.26936  0.2027   1
   6   7   3 3.10966 0.19777   1
   6   7   4 9.60156 0.22236   1
   6   7   5 11.0499 0.33077   1
   6   7   6 10.0075 0.19835   1
   6   7   7 7.62365  0.2184   1
   6   8  -5 6.12454 0.27839   1
   6   8  -4 7.23464 0.14928   1
   6   8  -3 4.91833 0.27652   1
   6   8  -2 8.70689 0.16883   1
   6   8  -1 3.32716 0.19687   1
   6   8   0 1.55242 0.23834   1
   6   8   1 3.37046 0.18988   1
   6   8   2 8.89663 0.16748   1
   6   8   3  4.7392 0.18252   1
   6   8   4 7.70519 0.22777   1
   6   8   5 5.93717 0.23496   1
   7   0   1 1.92354 0.13517   1
   7   0   2 4.42832 0.12194   1
   7   0   4 3.42929 0.09769   1
   7   0   5 6.93397 0.10023   1
   7   0   6 16.7502 0.18955   1
   7   0   7 5.10784 0.11747   1
   7   0   8 11.6482 0.11676   1
   7   0   9 5.53895 0.15436   1
   7   1  -9 8.04922 0.12796   1
   7   1  -8 9.70773 0.11743   1
   7   1  -7 1.69706 0.12669   1
   7   1  -6 1.76635 0.17267   1
   7   1  -5 7.12461 0.10316   1
   7   1  -4 3.75766 0.11044   1
   7   1  -3  4.1328 0.09437   1
   7   1  -2 16.7642 0.15509   1
   7   1  -1 4.04846 0.14079   1
   7   1   0 3.78814 0.11615   1
   7   1   1 4.00874 0.14219   1
   7   1   2 16.8686 0.18199   1
   7   1   3 4.11704 0.13481   1
   7   1   4 3.59583 0.11819   1
   7   1   5 6.95917 0.09412   1
   7   1   6 1.98997 0.11809   1
   7   1   7 1.67033  0.1347   1
   7   1   8 9.43928 0.12819   1
   7   1   9 7.75951 0.11148   1
   7   2  -9 5.03885 0.14785   1
   7   2  -8 5.96154 0.11658   1
   7   2  -7 5.70175 0.09734   1
   7   2  -6  6.4195  0.0958   1
   7   2  -5 11.5052 0.13298   1
   7   2  -4 3.33467 0.11845   1
   7   2  -3 2.12132 0.12492   1
   7   2  -2 5.26213 0.12637   1
   7   2  -1 14.8486 0.13335   1
   7   2   1 14.7285 0.14937   1
   7   2   2 5.64535 0.14702   1
   7   2   3 2.32379 0.18935   1
   7   2   4 2.85482 0.14712   1
   7   2   5 11.5922 0.19496   1
   7   2   6 6.71044 0.12965   1
   7   2   7  5.8258  0.1193   1
   7   2   8 5.78187 0.13317   1
   7   2   9 5.01498 0.18245   1
   7   3  -9 9.72934 0.32479   1
   7   3  -8 4.23202 0.13114   1
   7   3  -7 5.74195 0.12801   1
   7   3  -6  4.5607 0.13485   1
   7   3  -5 12.8829 0.14865   1
   7   3  -4 3.53553 0.12021   1
   7   3  -3 2.73496 0.13163   1
   7   3  -2 3.61663  0.1189   1
   7   3  -1 8.98053 0.15756   1
   7   3   1 8.87299 0.10481   1
   7   3   2 3.69594 0.15963   1
   7   3   3 2.85832 0.25539   1
   7   3   4 3.68782 0.14236   1
   7   3   5 12.9283 0.17636   1
   7   3   6 4.59674 0.17947   1
   7   3   7 5.62317 0.19562   1
   7   3   8 4.34626 0.20592   1
   7   3   9  9.8995 0.28183   1
   7   4  -8 7.09577 0.19307   1
   7   4  -7 5.54256  0.1299   1
   7   4  -6  4.0939 0.13923   1
   7   4  -5 6.06795 0.13266   1
   7   4  -4 5.57674 0.18111   1
   7   4  -3 4.57056 0.13565   1
   7   4  -2  7.3641 0.12561   1
   7   4  -1 14.2745 0.15342   1
   7   4   0 1.96469 0.15015   1
   7   4   1 14.0285 0.14863   1
   7   4   2  6.9455 0.12886   1
   7   4   3 5.06162 0.39809   1
   7   4   4 5.68331 0.44164   1
   7   4   5 6.04814  0.3869   1
   7   4   6 3.92173 0.23204   1
   7   4   7 4.70956 0.30895   1
   7   4   8 6.92892  0.2771   1
   7   5  -6 2.77308 0.15506   1
   7   5  -5 4.39659 0.20698   1
   7   5  -4 9.80255 0.16475   1
   7   5  -3 2.21133 0.16732   1
   7   5  -2 10.7968  0.1732   1
   7   5  -1 4.98598 0.15945   1
   7   5   0 4.15211 0.14089   1
   7   5   1 4.75289 0.15359   1
   7   5   2 10.6804 0.15823   1
   7   5   3 2.50599 0.26935   1
   7   5   4 9.68401 0.21582   1
   7   5   5 4.11218 0.23589   1
   7   5   6 2.68142 0.25546   1
   7   6  -3 3.83927 0.15107   1
   7   6  -2 3.35112 0.17606   1
   7   6  -1 5.20961 0.18907   1
   7   6   0 2.63439  0.1879   1
   7   6   1 5.14198 0.19934   1
   7   6   2 3.67423 0.17283   1
   7   6   3 3.66742 0.20314   1
   8   0   0 10.0329 0.19735   1
   8   0   1 2.45153 0.19784   1
   8   0   2 3.97744 0.17474   1
   8   0   3 14.2955 0.23749   1
   8   0   4   7.687 0.16391   1
   8   0   5 3.57351 0.23086   1
   8   1  -5 2.94449 0.28358   1
   8   1  -4  7.3797 0.15787   1
   8   1  -3 2.41868 0.18812   1
   8   1  -1 9.85901 0.21605   1
   8   1   0 13.9208  0.2155   1
   8   1   1 10.0683 0.16636   1
   8   1   3 2.57294 0.26429   1
   8   1   4 7.43841 0.14049   1
   8   1   5 2.56515  0.2495   1
   8   2  -4  6.2522  0.2975   1
   8   2  -2 5.51725 0.16766   1
   8   2  -1 7.36003 0.16032   1
   8   2   0  9.5619 0.16628   1
   8   2   1  7.3253 0.24231   1
   8   2   2 5.69912 0.16845   1
   8   2   4 6.07701 0.15962   1
   8   3  -2  1.7088  0.2253   1
   8   3  -1 6.50538 0.20445   1
   8   3   0 4.15933 0.18513   1
   8   3   1 6.29047 0.16851   1
   8   3   2 2.21585  0.4197   1
   8   3   3 8.11419 0.20211   1
   0   0   0    0.00    0.00   1
;
_shelx_hkl_checksum   89015

