# ========================
# Tonto generated CIF file
# ========================

# NOTE: This is an incomplete CIF file
# Manually edit it to pass checkCIF

data_list4_disp

_audit_creation_date                2021-7-20
_audit_creation_method              'Tonto 21.07.06 github v. a8534970'

# ============
# QCr software
# ============

_QCr_software                       'Tonto'
_QCr_software_version               '21.07.06 v. a8534970'
_QCr_software_platform              'Linux-4.15.0-142-generic'
_QCr_software_build_date            '2021-07-06 10:37'
_QCr_software_website               'https://github.com/dylan-jayatilaka/tonto'

# ===========
# Publication
# ===========

_publ_contact_author
;
    Prof. Dr. Sir Tonto Magnifico
;
_publ_contact_author_email          'tonto.magnifico@gmail.com'
_publ_contact_author_phone          '+61 8 6488 3138'
_publ_requested_journal             'IUCrJ'
_publ_section_title
;
   'Hirshfeld atom-refinement (HAR) for list4_disp'
   'X-ray wavefunction refinement (XWR) for list4_disp'
   Tonto Magnifico, IUCrJ (XXXX)
;

loop_
    _publ_author_name
    'Tonto Magnifico'

_publ_author_address
;
    Prof. Dr. Sir Tonto Magnifico
    1 El Camino Ciberespacio
    Tierra Austral del Espiritu Santo
;

# ========
# Chemical
# ========

_chemical_name_common               list4_disp
_chemical_formula_sum               'C11 H10 O2 S'
_chemical_formula_moiety            'C11 H10 O2 S'
_chemical_formula_weight            206.2651
_chemical_compound_source           'see text'
_chemical_absolute_configuration    unk

# =======
# Crystal
# =======

_exptl_crystal_description          ?
_exptl_crystal_colour               ?
_exptl_crystal_size_max             ?
_exptl_crystal_size_mid             ?
_exptl_crystal_size_min             ?
_exptl_crystal_density_diffrn       ?

# ==============
# Absortion data
# ==============

_exptl_absorpt_coefficient_mu       ?
_exptl_absorpt_correction_type      'none'
_exptl_absorpt_process_details      ?
_exptl_absorpt_correction_T_min     ?
_exptl_absorpt_correction_T_max     ?

# ========
# Symmetry
# ========

_symmetry_cell_setting              Orthorhombic
_symmetry_space_group_name_H-M      'p 21 21 21'
_symmetry_space_group_name_Hall     'p 2ac 2ab'
_symmetry_Int_Tables_number         '19'

loop_
    _symmetry_equiv_pos_as_xyz
'+x, +y, +z'
'-x+1/2, -y, +z+1/2'
'+x+1/2, -y+1/2, -z'
'-x, +y+1/2, -z+1/2'

# =========
# Unit cell
# =========

_cell_measurement_temperature  ?
_cell_measurement_reflns_used  ?
_cell_measurement_theta_min    ?
_cell_measurement_theta_max    ?

_cell_length_a                    5.87554(3)
_cell_length_b                    8.95141(3)
_cell_length_c                   18.33944(7)
_cell_angle_alpha               90.000000(0)
_cell_angle_beta                90.000000(0)
_cell_angle_gamma               90.000000(0)
_cell_volume                      964.551(7)

_cell_formula_units_Z               4.000000

_atom_sites_solution_hydrogens      HAR

# ===============
# Refinement data
# ===============

_refine_ls_kind                     'Hirshfeld atom refinement (HAR)'
_refine_ls_method_description
;
   S.C. Capelli, H.-B. Burgi, B. Dittrich, S.Grabowsky
   and Dylan Jayatilaka, IUCrJ (2014). 1, 361-379
;
_refine_QCr_Psi_constraint          'none'

_refine_ls_SVD_threshold            0.1E-02
_refine_ls_coordinate_system        cartesian
_refine_ls_structure_factor_coef    F
_refine_ls_matrix_type              full
_refine_ls_R_factor_gt              0.0275
_refine_ls_R_factor_ref             0.0275
_refine_ls_R_factor_all             0.0275
_refine_ls_wR_factor_gt             0.0324
_refine_ls_wR_factor_ref            0.0324
_refine_ls_wR_factor_all            0.0324
_refine_ls_R_Fsqd_factor            0.0392
_refine_ls_chi2                     72.9613
_refine_ls_goodness_of_fit_gt       8.5417
_refine_ls_goodness_of_fit_ref      8.5417
_refine_ls_goodness_of_fit_all      8.5417
_refine_ls_number_reflns            2103
_refine_ls_number_parameters        192
_refine_ls_number_restraints        0
_refine_ls_number_constraints       50
_refine_ls_hydrogen_treatment       refall
_refine_ls_weighting_scheme         sigma
_refine_ls_weighting_details        'w=1/\s(F)'
_refine_ls_shift/su_conv_tol        0.0100
_refine_ls_shift/su_max             0.0000
_refine_ls_shift/su_max_mean        0.0000
_refine_ls_shift/su_max_par         ''
_refine_ls_extinction_method        none

_refine_diff_density_max            0.1678
_refine_diff_density_min            -0.1621
_refine_diff_density_rms            0.0338

_refine_special_details
;
. If constraints were applied they are defined by zero
  eigenvalues of the least-squares hessian, see the
  value of _refine_ls_SVD_threshold
;

# =====================================
# Precise fractional system coordinates
# =====================================

# . These precise data use non-standard CIF tags
# . Non-standard tags shadow standard tags to avoid duplication
# . Please keep for a better refinement restart
# . Better yet, use the refined cartesian parameters

loop_
_atom_site_Cryst_label
_atom_site_Cryst_x
_atom_site_Cryst_y
_atom_site_Cryst_z
_atom_site_Cryst_U_iso_or_equiv
_atom_site_Cryst_adp_type
_atom_site_Cryst_occupancy
_atom_site_Cryst_disorder_group
_atom_site_Cryst_x_esu
_atom_site_Cryst_y_esu
_atom_site_Cryst_z_esu
_atom_site_Cryst_U_iso_or_equiv_esu
   S1  0.188591  0.685779  0.740557  0.017824  Uani  1.000000  0
       0.000193  0.000100  0.000051  0.000630
   O1  0.155446  0.410716  0.629553  0.025979  Uani  1.000000  0
       0.000227  0.000118  0.000059  0.000604
   O2  0.673640  0.804401  0.677947  0.024723  Uani  1.000000  0
       0.000206  0.000120  0.000057  0.000571
   C1  0.311238  0.502194  0.625485  0.020080  Uani  1.000000  0
       0.000308  0.000162  0.000079  0.000729
   C2  0.572824  0.696881  0.650288  0.019125  Uani  1.000000  0
       0.000280  0.000173  0.000079  0.000737
   C3  0.648390  0.615607  0.582726  0.019700  Uani  1.000000  0
       0.000293  0.000167  0.000079  0.000744
   C4  0.833397  0.642020  0.538201  0.024632  Uani  1.000000  0
       0.000330  0.000188  0.000089  0.000818
   C5  0.859288  0.550460  0.476797  0.028395  Uani  1.000000  0
       0.000340  0.000195  0.000091  0.000906
   C6  0.517463  0.412446  0.506956  0.025892  Uani  1.000000  0
       0.000339  0.000185  0.000090  0.000878
   C7  0.493146  0.502361  0.567875  0.020189  Uani  1.000000  0
       0.000284  0.000179  0.000083  0.000797
   C8  0.366444  0.625679  0.672415  0.019323  Uani  1.000000  0
       0.000275  0.000172  0.000082  0.000763
   C9  0.171376  0.884139  0.729004  0.024354  Uani  1.000000  0
       0.000347  0.000179  0.000096  0.000828
  C10  0.348868  0.677971  0.823853  0.030068  Uani  1.000000  0
       0.000391  0.000218  0.000088  0.000934
  C11  0.704257  0.438747  0.461605  0.029923  Uani  1.000000  0
       0.000383  0.000192  0.000088  0.000902
   H1  0.313350  0.919779  0.725715  0.024118  Uiso  1.000000  0
       0.004191  0.001971  0.000984  0.004659
   H2  0.258379  0.734828  0.860131  0.036681  Uiso  1.000000  0
       0.003950  0.002221  0.001107  0.005587
   H3  0.088344  0.901429  0.681708  0.035934  Uiso  1.000000  0
       0.003807  0.002187  0.001199  0.005573
   H4  0.415583  0.335181  0.497247  0.029224  Uiso  1.000000  0
       0.003617  0.002139  0.001029  0.005080
   H5  0.935143  0.720610  0.547688  0.027315  Uiso  1.000000  0
       0.003785  0.002138  0.001007  0.005017
   H6  0.496321  0.722015  0.815822  0.041642  Uiso  1.000000  0
       0.004372  0.002478  0.001207  0.006337
   H7  0.993757  0.564062  0.445170  0.031030  Uiso  1.000000  0
       0.003648  0.002098  0.001105  0.005401
   H8  0.362161  0.571188  0.834512  0.038896  Uiso  1.000000  0
       0.004018  0.002454  0.001116  0.005704
   H9  0.724951  0.374036  0.419012  0.036741  Uiso  1.000000  0
       0.003816  0.002242  0.001105  0.005412
  H10  0.081122  0.920359  0.771028  0.031083  Uiso  1.000000  0
       0.003772  0.002044  0.001126  0.005359

# ======================
# Fractional coordinates
# ======================

loop_
_atom_site_label
_atom_site_fract_x
_atom_site_fract_y
_atom_site_fract_z
_atom_site_U_iso_or_equiv
_atom_site_adp_type
_atom_site_occupancy
_atom_site_disorder_group
   S1  0.18859(19)  0.68578(10)  0.74056(5)   0.0178(6)  Uani  1.000000  0
   O1  0.1554(2)    0.41072(12)  0.62955(6)   0.0260(6)  Uani  1.000000  0
   O2  0.6736(2)    0.80440(12)  0.67795(6)   0.0247(6)  Uani  1.000000  0
   C1  0.3112(3)    0.50219(16)  0.62549(8)   0.0201(7)  Uani  1.000000  0
   C2  0.5728(3)    0.69688(17)  0.65029(8)   0.0191(7)  Uani  1.000000  0
   C3  0.6484(3)    0.61561(17)  0.58273(8)   0.0197(7)  Uani  1.000000  0
   C4  0.8334(3)    0.64202(19)  0.53820(9)   0.0246(8)  Uani  1.000000  0
   C5  0.8593(3)    0.55046(19)  0.47680(9)   0.0284(9)  Uani  1.000000  0
   C6  0.5175(3)    0.41245(18)  0.50696(9)   0.0259(9)  Uani  1.000000  0
   C7  0.4931(3)    0.50236(18)  0.56787(8)   0.0202(8)  Uani  1.000000  0
   C8  0.3664(3)    0.62568(17)  0.67241(8)   0.0193(8)  Uani  1.000000  0
   C9  0.1714(3)    0.88414(18)  0.72900(10)  0.0244(8)  Uani  1.000000  0
  C10  0.3489(4)    0.6780(2)    0.82385(9)   0.0301(9)  Uani  1.000000  0
  C11  0.7043(4)    0.43875(19)  0.46160(9)   0.0299(9)  Uani  1.000000  0
   H1  0.313(4)     0.920(2)     0.7257(10)   0.024(5)   Uiso  1.000000  0
   H2  0.258(4)     0.735(2)     0.8601(11)   0.037(6)   Uiso  1.000000  0
   H3  0.088(4)     0.901(2)     0.6817(12)   0.036(6)   Uiso  1.000000  0
   H4  0.416(4)     0.335(2)     0.4972(10)   0.029(5)   Uiso  1.000000  0
   H5  0.935(4)     0.721(2)     0.5477(10)   0.027(5)   Uiso  1.000000  0
   H6  0.496(4)     0.722(2)     0.8158(12)   0.042(6)   Uiso  1.000000  0
   H7  0.994(4)     0.564(2)     0.4452(11)   0.031(5)   Uiso  1.000000  0
   H8  0.362(4)     0.571(2)     0.8345(11)   0.039(6)   Uiso  1.000000  0
   H9  0.725(4)     0.374(2)     0.4190(11)   0.037(5)   Uiso  1.000000  0
  H10  0.081(4)     0.920(2)     0.7710(11)   0.031(5)   Uiso  1.000000  0

# ==================================
# Precise cartesian axis system ADPs
# ==================================

# . These precise data use non-standard CIF tags
# . Non-standard tags shadow standard tags to avoid duplication
# . Keep these for a refinement restart
# . Better yet, use the refined cartesian parameters

loop_
_atom_site_Cryst_ADP2_U_label
_atom_site_Cryst_ADP2_U_11
_atom_site_Cryst_ADP2_U_22
_atom_site_Cryst_ADP2_U_33
_atom_site_Cryst_ADP2_U_12
_atom_site_Cryst_ADP2_U_13
_atom_site_Cryst_ADP2_U_23
_atom_site_Cryst_ADP2_U_11_esu
_atom_site_Cryst_ADP2_U_22_esu
_atom_site_Cryst_ADP2_U_33_esu
_atom_site_Cryst_ADP2_U_12_esu
_atom_site_Cryst_ADP2_U_13_esu
_atom_site_Cryst_ADP2_U_23_esu
   S1  0.018279  0.015637  0.019558  -0.002721   0.003856  -0.000926
       0.000683  0.000606  0.000601   0.000548   0.000523   0.000451
   O1  0.028789  0.022475  0.026672  -0.007629   0.002782  -0.002747
       0.000672  0.000573  0.000567   0.000531   0.000553   0.000442
   O2  0.021352  0.024253  0.028563  -0.003994  -0.000333  -0.004695
       0.000572  0.000570  0.000571   0.000607   0.000485   0.000461
   C1  0.023284  0.017161  0.019796   0.001693  -0.000055   0.002580
       0.000817  0.000663  0.000707   0.000781   0.000736   0.000543
   C2  0.018732  0.018879  0.019765   0.003351  -0.001925   0.001374
       0.000782  0.000732  0.000698   0.000714   0.000574   0.000641
   C3  0.020970  0.019492  0.018638   0.005011  -0.000356   0.002321
       0.000838  0.000699  0.000695   0.000691   0.000627   0.000581
   C4  0.022982  0.025256  0.025658   0.002554   0.002253   0.003173
       0.000860  0.000810  0.000785   0.000793   0.000768   0.000611
   C5  0.031552  0.028884  0.024749   0.006643   0.010711   0.005424
       0.001030  0.000874  0.000814   0.000824   0.000794   0.000674
   C6  0.036149  0.019852  0.021674   0.000612   0.001785  -0.000291
       0.001054  0.000798  0.000783   0.000752   0.000744   0.000656
   C7  0.024557  0.017462  0.018548   0.003629   0.000665   0.002525
       0.000908  0.000756  0.000727   0.000713   0.000681   0.000584
   C8  0.019962  0.018869  0.019139   0.001339   0.000770  -0.000718
       0.000843  0.000711  0.000736   0.000649   0.000623   0.000577
   C9  0.022500  0.019824  0.030739   0.002615   0.004939  -0.000396
       0.000877  0.000758  0.000848   0.000783   0.000833   0.000660
  C10  0.042338  0.027335  0.020531   0.001850  -0.001165  -0.001018
       0.001132  0.000886  0.000783   0.000986   0.000802   0.000699
  C11  0.045060  0.024605  0.020103   0.007734   0.006695   0.000289
       0.001148  0.000796  0.000761   0.000912   0.000826   0.000644

# ====
# ADPs
# ====

loop_
_atom_site_aniso_label
_atom_site_aniso_U_11
_atom_site_aniso_U_22
_atom_site_aniso_U_33
_atom_site_aniso_U_12
_atom_site_aniso_U_13
_atom_site_aniso_U_23
   S1  0.0183(7)   0.0156(6)  0.0196(6)  -0.0027(5)    0.0039(5)  -0.0009(5)
   O1  0.0288(7)   0.0225(6)  0.0267(6)  -0.0076(5)    0.0028(6)  -0.0027(4)
   O2  0.0214(6)   0.0243(6)  0.0286(6)  -0.0040(6)   -0.0003(5)  -0.0047(5)
   C1  0.0233(8)   0.0172(7)  0.0198(7)   0.0017(8)   -0.0001(7)   0.0026(5)
   C2  0.0187(8)   0.0189(7)  0.0198(7)   0.0034(7)   -0.0019(6)   0.0014(6)
   C3  0.0210(8)   0.0195(7)  0.0186(7)   0.0050(7)   -0.0004(6)   0.0023(6)
   C4  0.0230(9)   0.0253(8)  0.0257(8)   0.0026(8)    0.0023(8)   0.0032(6)
   C5  0.0316(10)  0.0289(9)  0.0247(8)   0.0066(8)    0.0107(8)   0.0054(7)
   C6  0.0361(11)  0.0199(8)  0.0217(8)   0.0006(8)    0.0018(7)  -0.0003(7)
   C7  0.0246(9)   0.0175(8)  0.0185(7)   0.0036(7)    0.0007(7)   0.0025(6)
   C8  0.0200(8)   0.0189(7)  0.0191(7)   0.0013(6)    0.0008(6)  -0.0007(6)
   C9  0.0225(9)   0.0198(8)  0.0307(8)   0.0026(8)    0.0049(8)  -0.0004(7)
  C10  0.0423(11)  0.0273(9)  0.0205(8)   0.0019(10)  -0.0012(8)  -0.0010(7)
  C11  0.0451(11)  0.0246(8)  0.0201(8)   0.0077(9)    0.0067(8)   0.0003(6)

# ============================================
# Precise 3rd order Gram-Charlier coefficients
# ============================================

# . These are precise parameters and ESDs
# . Keep these for a refinement restart
# . Better yet, use the refined cartesian parameters

_atom_site_anharm_GC_C_scale_factor 1000.0000000000000

loop_
_atom_site_anharm_GC_C_label
_atom_site_anharm_GC_C_111
_atom_site_anharm_GC_C_111_esu
_atom_site_anharm_GC_C_222
_atom_site_anharm_GC_C_222_esu
_atom_site_anharm_GC_C_333
_atom_site_anharm_GC_C_333_esu
_atom_site_anharm_GC_C_112
_atom_site_anharm_GC_C_112_esu
_atom_site_anharm_GC_C_113
_atom_site_anharm_GC_C_113_esu
_atom_site_anharm_GC_C_122
_atom_site_anharm_GC_C_122_esu
_atom_site_anharm_GC_C_223
_atom_site_anharm_GC_C_223_esu
_atom_site_anharm_GC_C_133
_atom_site_anharm_GC_C_133_esu
_atom_site_anharm_GC_C_233
_atom_site_anharm_GC_C_233_esu
_atom_site_anharm_GC_C_123
_atom_site_anharm_GC_C_123_esu
S1
       -0.001459
        0.000935
        0.000531
        0.000232
        0.000046
        0.000028
       -0.000974
        0.000276
        0.000043
        0.000145
       -0.000635
        0.000211
       -0.000053
        0.000055
        0.000233
        0.000053
       -0.000090
        0.000029
        0.000160
        0.000110

# ======================================
# Third order Gram-Charlier coefficients
# ======================================

# . These data are in standard presentation

_atom_site_anharm_GC_C_scale_factor 1000.0000000000000

loop_
_atom_site_anharm_GC_C_label
_atom_site_anharm_GC_C_111
_atom_site_anharm_GC_C_222
_atom_site_anharm_GC_C_333
_atom_site_anharm_GC_C_112
_atom_site_anharm_GC_C_113
_atom_site_anharm_GC_C_122
_atom_site_anharm_GC_C_223
_atom_site_anharm_GC_C_133
_atom_site_anharm_GC_C_233
_atom_site_anharm_GC_C_123
S1
         -0.0015(9)          0.0005(2)         0.00005(3)
         -0.0010(3)        0.00004(14)
         -0.0006(2)        -0.00005(5)
         0.00023(5)        -0.00009(3)
        0.00016(11)

# ============================================
# Precise 4th order Gram-Charlier coefficients
# ============================================

# . These are precise parameters and ESDs
# . Keep these for a refinement restart
# . Better yet, use the refined cartesian parameters

_atom_site_anharm_GC_D_scale_factor 10000.000000000000

loop_
_atom_site_anharm_GC_D_label
_atom_site_anharm_GC_D_1111
_atom_site_anharm_GC_D_1111_esu
_atom_site_anharm_GC_D_2222
_atom_site_anharm_GC_D_2222_esu
_atom_site_anharm_GC_D_3333
_atom_site_anharm_GC_D_3333_esu
_atom_site_anharm_GC_D_1112
_atom_site_anharm_GC_D_1112_esu
_atom_site_anharm_GC_D_1113
_atom_site_anharm_GC_D_1113_esu
_atom_site_anharm_GC_D_1222
_atom_site_anharm_GC_D_1222_esu
_atom_site_anharm_GC_D_2223
_atom_site_anharm_GC_D_2223_esu
_atom_site_anharm_GC_D_1333
_atom_site_anharm_GC_D_1333_esu
_atom_site_anharm_GC_D_2333
_atom_site_anharm_GC_D_2333_esu
_atom_site_anharm_GC_D_1122
_atom_site_anharm_GC_D_1122_esu
_atom_site_anharm_GC_D_1133
_atom_site_anharm_GC_D_1133_esu
_atom_site_anharm_GC_D_2233
_atom_site_anharm_GC_D_2233_esu
_atom_site_anharm_GC_D_1123
_atom_site_anharm_GC_D_1123_esu
_atom_site_anharm_GC_D_1223
_atom_site_anharm_GC_D_1223_esu
_atom_site_anharm_GC_D_1233
_atom_site_anharm_GC_D_1233_esu
S1
        0.000998
        0.001518
        0.000185
        0.000258
        0.000027
        0.000015
       -0.000378
        0.000488
        0.000114
        0.000232
       -0.000426
        0.000217
        0.000044
        0.000058
        0.000028
        0.000025
        0.000016
        0.000014
       -0.000049
        0.000194
        0.000154
        0.000051
        0.000004
        0.000019
        0.000085
        0.000073
       -0.000032
        0.000050
        0.000008
        0.000029

# =======================================
# Fourth order Gram-Charlier coefficients
# =======================================

# . These data are in standard presentation

_atom_site_anharm_GC_D_scale_factor 10000.000000000000

loop_
_atom_site_anharm_GC_D_label
_atom_site_anharm_GC_D_1111
_atom_site_anharm_GC_D_2222
_atom_site_anharm_GC_D_3333
_atom_site_anharm_GC_D_1112
_atom_site_anharm_GC_D_1113
_atom_site_anharm_GC_D_1222
_atom_site_anharm_GC_D_2223
_atom_site_anharm_GC_D_1333
_atom_site_anharm_GC_D_2333
_atom_site_anharm_GC_D_1122
_atom_site_anharm_GC_D_1133
_atom_site_anharm_GC_D_2233
_atom_site_anharm_GC_D_1123
_atom_site_anharm_GC_D_1223
_atom_site_anharm_GC_D_1233
S1
         0.0010(15)          0.0002(3)       0.000027(15)
         -0.0004(5)          0.0001(2)
         -0.0004(2)         0.00004(6)
         0.00003(2)       0.000016(14)
       -0.00005(19)         0.00015(5)       0.000004(19)
         0.00008(7)        -0.00003(5)         0.00001(3)

# ===========
# Reflections
# ===========

_diffrn_radiation_wavelength        1.541840

_shelx_F_calc_maximum               97.121629

_reflns_d_resolution_high           9.169720
_reflns_d_resolution_low            0.782936
_reflns_limit_h_max                 7
_reflns_limit_h_min                 -7
_reflns_limit_k_max                 11
_reflns_limit_k_min                 0
_reflns_limit_l_max                 23
_reflns_limit_l_min                 0
_reflns_number_gt                   2103
_reflns_number_total                2103
_reflns_threshold_expression        'F>0 & F/u(F)>4.0 & |F_calc|>10^-3'

_reflns_special_details
;
* Specify symmetry and Friedel pair averaging *

. Only reflections which satisfy the threshold expression
  are listed below, and only they are considered observed,
  thus the *_gt, *_all, & *_total data are always the same
;

# ============
# Bond lengths
# ============

loop_
 _geom_bond_atom_site_label_1
 _geom_bond_site_symmetry_1
 _geom_bond_atom_site_label_2
 _geom_bond_site_symmetry_2
 _geom_bond_distance
 _geom_bond_publ_flag
   S1  .   C8  .  1.7156(19)  yes
   S1  .   C9  .  1.7911(18)  yes
   S1  .  C10  .  1.796(2)    yes
   O1  .   C1  .  1.230(2)    yes
   O2  .   C2  .  1.2388(19)  yes
   C1  .   C7  .    1.503(2)  yes
   C1  .   C8  .    1.438(2)  yes
   C2  .   C3  .    1.504(2)  yes
   C2  .   C8  .    1.429(2)  yes
   C3  .   C4  .    1.380(2)  yes
   C3  .   C7  .    1.391(2)  yes
   C4  .   C5  .    1.401(2)  yes
   C5  .  C11  .    1.381(3)  yes
   C6  .   C7  .    1.384(2)  yes
   C6  .  C11  .    1.397(3)  yes
   C4  .   H5  .     0.94(2)  yes
   C5  .   H7  .     0.99(2)  yes
   C6  .   H4  .     0.93(2)  yes
   C9  .   H1  .     0.90(2)  yes
   C9  .   H3  .     1.01(2)  yes
   C9  .  H10  .     0.99(2)  yes
  C10  .   H2  .     0.99(2)  yes
  C10  .   H6  .     0.96(3)  yes
  C10  .   H8  .     0.98(2)  yes
  C11  .   H9  .     0.98(2)  yes

# ===========
# Bond Angles
# ===========

loop_
 _geom_angle_atom_site_label_1
 _geom_angle_site_symmetry_1
 _geom_angle_atom_site_label_2
 _geom_angle_site_symmetry_2
 _geom_angle_atom_site_label_3
 _geom_angle_site_symmetry_3
 _geom_angle
 _geom_angle_publ_flag
   S1  .   C8  .   C1  .      122.66(13)  yes
   S1  .   C8  .   C2  .      125.73(12)  yes
   S1  .   C9  .   H1  .       108.0(12)  yes
   S1  .   C9  .   H3  .       106.4(11)  yes
   S1  .   C9  .  H10  .       105.2(11)  yes
   S1  .  C10  .   H2  .       105.6(12)  yes
   S1  .  C10  .   H6  .       109.0(13)  yes
   S1  .  C10  .   H8  .       104.5(13)  yes
   O1  .   C1  .   C7  .      124.91(14)  yes
   O1  .   C1  .   C8  .      130.02(15)  yes
   O2  .   C2  .   C3  .      124.89(15)  yes
   O2  .   C2  .   C8  .      129.50(15)  yes
   C8  .   S1  .   C9  .      105.02(9)   yes
   C8  .   S1  .  C10  .      106.74(11)  yes
   C9  .   S1  .  C10  .       99.72(10)  yes
   C1  .   C7  .   C3  .      109.24(13)  yes
   C1  .   C7  .   C6  .      129.81(16)  yes
   C1  .   C8  .   C2  .      111.37(14)  yes
   C2  .   C3  .   C4  .      129.58(15)  yes
   C2  .   C3  .   C7  .      108.68(14)  yes
   C3  .   C2  .   C8  .      105.59(13)  yes
   C3  .   C4  .   C5  .      117.45(17)  yes
   C3  .   C7  .   C6  .      120.94(15)  yes
   C4  .   C3  .   C7  .      121.71(14)  yes
   C4  .   C5  .  C11  .      120.94(17)  yes
   C5  .  C11  .   C6  .      121.34(16)  yes
   C7  .   C1  .   C8  .      105.05(13)  yes
   C7  .   C6  .  C11  .      117.62(17)  yes
   C3  .   C4  .   H5  .       121.3(12)  yes
   C4  .   C5  .   H7  .       119.1(11)  yes
   C5  .   C4  .   H5  .       121.2(12)  yes
   C5  .  C11  .   H9  .       120.5(13)  yes
   C6  .  C11  .   H9  .       118.2(13)  yes
   C7  .   C6  .   H4  .       121.3(12)  yes
  C11  .   C5  .   H7  .       119.9(11)  yes
  C11  .   C6  .   H4  .       121.1(12)  yes
   H1  .   C9  .   H3  .       109.8(17)  yes
   H1  .   C9  .  H10  .       115.8(17)  yes
   H2  .  C10  .   H6  .       112.0(18)  yes
   H2  .  C10  .   H8  .       114.2(17)  yes
   H3  .   C9  .  H10  .       111.1(17)  yes
   H6  .  C10  .   H8  .       111.0(19)  yes

# ==============
# Torsion angles
# ==============

loop_
 _geom_torsion_atom_site_label_1
 _geom_torsion_site_symmetry_1
 _geom_torsion_atom_site_label_2
 _geom_torsion_site_symmetry_2
 _geom_torsion_atom_site_label_3
 _geom_torsion_site_symmetry_3
 _geom_torsion_atom_site_label_4
 _geom_torsion_site_symmetry_4
 _geom_torsion
   S1  .   C8  .   C1  .   O1  .              -9.6(3)
   S1  .   C8  .   C2  .   O2  .               6.6(3)
   S1  .   C8  .   C1  .   C7  .           171.89(12)
   S1  .   C8  .   C2  .   C3  .          -172.24(12)
   O1  .   C1  .   C7  .   C3  .          -176.33(15)
   O1  .   C1  .   C7  .   C6  .             4.9(3)
   O1  .   C1  .   C8  .   C2  .           175.73(15)
   O2  .   C2  .   C3  .   C4  .            -1.1(3)
   O2  .   C2  .   C3  .   C7  .          -179.64(15)
   O2  .   C2  .   C8  .   C1  .          -178.92(15)
   C8  .   S1  .   C9  .   H1  .            -50.5(12)
   C8  .   S1  .   C9  .   H3  .             67.3(13)
   C8  .   S1  .   C9  .  H10  .           -174.7(12)
   C8  .   S1  .  C10  .   H2  .            166.9(12)
   C8  .   S1  .  C10  .   H6  .             46.4(14)
   C8  .   S1  .  C10  .   H8  .            -72.3(14)
   C9  .   S1  .  C10  .   H2  .             57.9(12)
   C9  .   S1  .  C10  .   H6  .            -62.7(14)
   C9  .   S1  .  C10  .   H8  .            178.6(14)
  C10  .   S1  .   C9  .   H1  .             59.9(13)
  C10  .   S1  .   C9  .   H3  .            177.7(13)
  C10  .   S1  .   C9  .  H10  .            -64.3(12)
   C1  .   C8  .   S1  .   C9  .          -131.49(14)
   C1  .   C8  .   S1  .  C10  .           123.25(14)
   C2  .   C8  .   S1  .   C9  .            42.37(18)
   C2  .   C8  .   S1  .  C10  .           -62.89(17)
   C1  .   C7  .   C3  .   C2  .            -0.97(17)
   C1  .   C7  .   C3  .   C4  .          -179.61(15)
   C1  .   C7  .   C6  .  C11  .           179.24(16)
   C1  .   C8  .   C2  .   C3  .             2.21(17)
   C2  .   C3  .   C4  .   C5  .          -178.07(16)
   C2  .   C3  .   C7  .   C6  .           177.90(15)
   C2  .   C8  .   C1  .   C7  .            -2.76(17)
   C3  .   C4  .   C5  .  C11  .             0.3(2)
   C3  .   C7  .   C1  .   C8  .             2.26(17)
   C3  .   C7  .   C6  .  C11  .             0.6(2)
   C4  .   C3  .   C2  .   C8  .           177.79(16)
   C4  .   C3  .   C7  .   C6  .            -0.7(2)
   C4  .   C5  .  C11  .   C6  .            -0.4(3)
   C5  .   C4  .   C3  .   C7  .             0.3(2)
   C5  .  C11  .   C6  .   C7  .             0.0(3)
   C6  .   C7  .   C1  .   C8  .          -176.48(17)
   C7  .   C3  .   C2  .   C8  .            -0.70(17)
   C1  .   C7  .   C6  .   H4  .             -2.6(14)
   C2  .   C3  .   C4  .   H5  .             -0.3(14)
   C3  .   C4  .   C5  .   H7  .           -177.4(13)
   C3  .   C7  .   C6  .   H4  .            178.8(14)
   C4  .   C5  .  C11  .   H9  .           -178.9(14)
   C5  .  C11  .   C6  .   H4  .           -178.2(14)
   C6  .  C11  .   C5  .   H7  .            177.3(13)
   C7  .   C3  .   C4  .   H5  .            178.0(14)
   C7  .   C6  .  C11  .   H9  .            178.5(14)
  C11  .   C5  .   C4  .   H5  .           -177.5(14)
   H4  .   C6  .  C11  .   H9  .              0.4(19)
   H5  .   C4  .   C5  .   H7  .              4.8(19)
   H7  .   C5  .  C11  .   H9  .             -1.3(19)
