
###########################################################################
#
#                 Cambridge Crystallographic Data Centre
#                                CCDC 
# 
###########################################################################
#
#  This CIF contains data generated directly from an entry in the Cambridge 
#  Structural Database and will include bibliographic, chemical, crystal, 
#  experimental, refinement, and atomic coordinate data, as available.
#     
#  Copyright  2006  The Cambridge Crystallographic Data Centre
# 
#  This CIF is provided on the understanding that it is used for bona fide 
#  research purposes only.  It may contain copyright material of the CCDC
#  or of third parties, and may not be copied or further disseminated in 
#  any form, whether machine-readable or not, except for the purpose of 
#  generating routine backup copies on your local computer system.
# 
#  For further information about the CCDC, data deposition and data 
#  retrieval see <www.ccdc.cam.ac.uk>. Bona fide researchers may freely 
#  download  Mercury and enCIFer from this site to visualise CIF-encoded 
#  structures and to carry out CIF format checking respectively.
#
###########################################################################

data_CSD_CIF_FORMAM02
_audit_creation_date 1978-06-15
_audit_creation_method CSD-ConQuest-V1
_database_code_CSD FORMAM02
_chemical_formula_sum 'C1 H3 N1 O1'
_chemical_formula_moiety
;
C1 H3 N1 O1
;
_journal_coeditor_code "IUCr A15812"
_journal_coden_Cambridge 107
_journal_volume 34
_journal_year 1978
_journal_page_first 544
_journal_name_full 'Acta Crystallogr.,Sect.B:Struct.Crystallogr.Cryst.Chem. '
loop_
_publ_author_name
"E.D.Stevens"
_chemical_name_systematic
;
Formamide
;
_cell_volume    224.075
_exptl_crystal_density_diffrn 1.331
_diffrn_ambient_temperature 90
#These two values have been output from a single CSD field.
_refine_ls_R_factor_gt 0.033
_refine_ls_wR_factor_gt 0.033
_symmetry_cell_setting monoclinic
_symmetry_space_group_name_H-M 'P 21/n'
_symmetry_Int_Tables_number 14
loop_
_symmetry_equiv_pos_site_id
_symmetry_equiv_pos_as_xyz
1 x,y,z
2 1/2-x,1/2+y,1/2-z
3 -x,-y,-z
4 -1/2+x,-1/2-y,-1/2+z
_cell_length_a 3.604(2)
_cell_length_b 9.041(3)
_cell_length_c 6.994(2)
_cell_angle_alpha 90
_cell_angle_beta 100.50(5)
_cell_angle_gamma 90
_cell_formula_units_Z 4
loop_
_atom_type_symbol
_atom_type_radius_bond
C 0.68
H 0.23
N 0.68
O 0.68
loop_
_atom_site_label
_atom_site_type_symbol
_atom_site_fract_x
_atom_site_fract_y
_atom_site_fract_z
O1 O 0.47180 -0.06870 0.24860
N1 N 0.29960 0.15660 0.11900
C1 C 0.33580 0.05650 0.25800
H1 H 0.21100 0.24400 0.14000
H2 H 0.36700 0.13500 0.00600
H3 H 0.24200 0.08900 0.37800
#END
