# ========================
# Tonto generated CIF file
# ========================

# NOTE: This is an incomplete CIF file
# Manually edit it to pass checkCIF

data_4AP_aniso_cluster_def2-TZVP

_audit_creation_date                2017-10-23
_audit_creation_method              'Tonto 17.10.11 github v. 48dfa6d'

# ============
# QCr software
# ============

_QCr_software                       'Tonto'
_QCr_software_version               '17.10.11 v. 48dfa6d'
_QCr_software_platform              'Linux-4.4.0-96-generic'
_QCr_software_build_date            '2017-10-11 10:18'
_QCr_software_website               'https://github.com/dylan-jayatilaka/tonto'

# ===========
# Publication
# ===========

_publ_contact_author
;
    Prof. Dr. Sir Tonto Magnifico
;
_publ_contact_author_email          'tonto.magnifico@gmail.com'
_publ_contact_author_phone          '+61 8 6488 3138'
_publ_requested_journal             'IUCrJ'
_publ_section_title
;
   'Hirshfeld atom-refinement (HAR) for 4AP_aniso_cluster_def2-TZVP'
   'X-ray wavefunction refinement (XWR) for 4AP_aniso_cluster_def2-TZVP'
   Tonto Magnifico, IUCrJ (XXXX)
;

loop_
    _publ_author_name
    'Tonto Magnifico'

_publ_author_address
;
    Prof. Dr. Sir Tonto Magnifico
    1 El Camino Ciberespacio
    Tierra Austral del Espiritu Santo
;

# ========
# Chemical
# ========

_chemical_name_common               4AP_aniso_cluster_def2-TZVP
_chemical_formula_sum               'C9 H10 N2 O4'
_chemical_formula_moiety            'C9 H10 N2 O4'
_chemical_formula_weight            210.1910
_chemical_compound_source           'see text'
_chemical_absolute_configuration    unk

# ==========
# QCr method
# ==========

_QCr_calc_method                    'Hartree-Fock/SCCF L=1 R=8.0 A'
_QCr_calc_spinorbital_kind          'restricted'
_QCr_calc_gaussian_basis_set        'def2-TZVP'
_QCr_calc_gaussian_basis_set_kind   'cartesian'
_QCr_calc_basis_max_l               '3'

_QCr_calc_unit                      'See _atom_site_* in tonto.cif2'
_QCr_calc_unit_spin_multiplicity    1
_QCr_calc_unit_n_electrons          110
_QCr_calc_unit_n_alpha_electrons    55
_QCr_calc_unit_n_beta_electrons     55

# =======
# Crystal
# =======

_exptl_crystal_description          ?
_exptl_crystal_colour               ?
_exptl_crystal_size_max             ?
_exptl_crystal_size_mid             ?
_exptl_crystal_size_min             ?
_exptl_crystal_density_diffrn       ?

# ==============
# Absortion data
# ==============

_exptl_absorpt_coefficient_mu       ?
_exptl_absorpt_correction_type      'none'
_exptl_absorpt_process_details      ?
_exptl_absorpt_correction_T_min     ?
_exptl_absorpt_correction_T_max     ?

# ========
# Symmetry
# ========

_symmetry_cell_setting              Monoclinic
_symmetry_space_group_name_H-M      'p 1 21 1'
_symmetry_space_group_name_Hall     'p 2yb'
_symmetry_Int_Tables_number         '4'

loop_
    _symmetry_equiv_pos_as_xyz
'+x, +y, +z'
 '-x, +y+1/2, -z'

# =========
# Unit cell
# =========

_cell_measurement_temperature  ?
_cell_measurement_reflns_used  ?
_cell_measurement_theta_min    ?
_cell_measurement_theta_max    ?

_cell_length_a                   7.85280(10)
_cell_length_b                   5.54510(10)
_cell_length_c                    10.9223(2)
_cell_angle_alpha               90.000000(0)
_cell_angle_beta                   96.394(7)
_cell_angle_gamma               90.000000(0)
_cell_volume                       472.65(2)

_cell_formula_units_Z               2.000000

_atom_sites_solution_hydrogens      HAR

# ===============
# Refinement data
# ===============

_refine_ls_kind                     'Hirshfeld atom refinement (HAR)'
_refine_ls_method_description
;
   S.C. Capelli, H.-B. Burgi, B. Dittrich, S.Grabowsky
   and Dylan Jayatilaka, IUCrJ (2014). 1, 361-379
;
_refine_QCr_Psi_constraint          'none'

_refine_ls_SVD_threshold            0.1E-02
_refine_ls_coordinate_system        cartesian
_refine_ls_structure_factor_coeff   F
_refine_ls_matrix_type              full
_refine_ls_R_factor_gt              0.0196
_refine_ls_R_factor_all             0.0196
_refine_ls_wR_factor_gt             0.0184
_refine_ls_wR_factor_all            0.0184
_refine_ls_R_Fsqd_factor            0.0286
_refine_ls_goodness_of_fit_gt       2.7635
_refine_ls_goodness_of_fit_all      2.7635
_refine_ls_number_reflns            13821
_refine_ls_number_parameters        225
_refine_ls_number_restraints        0
_refine_ls_number_constraints       1
_refine_ls_hydrogen_treatment       refall
_refine_ls_weighting_scheme         sigma
_refine_ls_weighting_details        'w=1/\s(F)'
_refine_ls_shift/su_conv_tol        0.0100
_refine_ls_shift/su_max             0.0069
_refine_ls_shift/su_max_mean        0.0008
_refine_ls_shift/su_max_par         'H1 py'
_refine_ls_extinction_method        none

_refine_diff_density_max            0.3195
_refine_diff_density_min            -0.2824
_refine_diff_density_rms            0.0443
_refine_diff_density_max_atom       0.0700
_refine_diff_density_max_atom_tag   C7
_refine_diff_density_min_atom       -0.1167
_refine_diff_density_min_atom_tag   H6
_refine_diff_density_rms_atom       0.0445

_refine_special_details
;
. If constraints were applied they are defined by zero
  eigenvalues of the least-squares hessian, see the
  value of _refine_ls_SVD_threshold
;

# ======================
# Fractional coordinates
# ======================

loop_
_atom_site_label
_atom_site_fract_x
_atom_site_fract_y
_atom_site_fract_z
_atom_site_U_iso_or_equiv
_atom_site_adp_type
_atom_site_occupancy
_atom_site_disorder_group
   O3   0.379875(19)   0.48338(14)  0.620714(13)  0.01017(5)  Uani  1.000000  0
   O2   0.16630(2)    -0.08701(14)  0.826654(12)  0.01090(5)  Uani  1.000000  0
   O1   0.32224(2)     0.27708(14)  0.785854(12)  0.00969(5)  Uani  1.000000  0
   O4  -0.00056(2)    -0.35752(14)  0.720344(14)  0.01147(5)  Uani  1.000000  0
   N2   0.57989(2)     0.81537(14)  0.754434(15)  0.00966(5)  Uani  1.000000  0
   N1   0.88521(2)     1.35840(14)  0.916012(14)  0.00991(5)  Uani  1.000000  0
   C1   0.31227(2)     0.30910(14)  0.668439(15)  0.00764(5)  Uani  1.000000  0
   C5   0.78561(2)     1.18193(14)  0.863968(14)  0.00726(5)  Uani  1.000000  0
   C6   0.74942(2)     1.16524(14)  0.733572(15)  0.00837(5)  Uani  1.000000  0
   C4   0.09591(2)    -0.18073(14)  0.724697(15)  0.00834(5)  Uani  1.000000  0
   C2   0.21872(2)     0.13115(15)  0.581871(15)  0.00865(5)  Uani  1.000000  0
   C8   0.61160(2)     0.82576(15)  0.878891(17)  0.00981(6)  Uani  1.000000  0
   C3   0.13148(2)    -0.07031(14)  0.604690(15)  0.00904(6)  Uani  1.000000  0
   C9   0.71205(2)     1.00431(15)  0.936384(15)  0.00869(6)  Uani  1.000000  0
   C7   0.64681(2)     0.98290(15)  0.682840(15)  0.00907(5)  Uani  1.000000  0
   H1   0.2487(9)      0.0974(15)   0.8096(6)     0.016(4)    Uani  1.000000  0
   H2   0.2235(7)      0.1785(10)   0.4837(4)     0.027(3)    Uani  1.000000  0
   H6   0.7992(7)      1.2963(11)   0.6742(4)     0.028(3)    Uani  1.000000  0
  H10   0.7353(7)      1.0097(9)    1.0373(4)     0.022(3)    Uani  1.000000  0
   H3   0.0730(7)     -0.1720(10)   0.5252(4)     0.030(3)    Uani  1.000000  0
   H7   0.6126(7)      0.9644(10)   0.5826(4)     0.028(3)    Uani  1.000000  0
   H9   0.5508(7)      0.6854(9)    0.9303(5)     0.027(3)    Uani  1.000000  0
   H4   0.9389(8)      1.4801(10)   0.8609(5)     0.024(3)    Uani  1.000000  0
   H8   0.5022(7)      0.6759(11)   0.7112(5)     0.021(3)    Uani  1.000000  0
   H5   0.8995(8)      1.3819(10)   1.0102(5)     0.023(3)    Uani  1.000000  0

# ====
# ADPs
# ====

loop_
_atom_site_aniso_label
_atom_site_aniso_U_11
_atom_site_aniso_U_22
_atom_site_aniso_U_33
_atom_site_aniso_U_12
_atom_site_aniso_U_13
_atom_site_aniso_U_23
   O3  0.01141(5)  0.00853(5)  0.01033(4)  -0.00303(4)   0.00012(4)  -0.00003(3)
   O2  0.01308(5)  0.01234(5)  0.00728(4)  -0.00188(4)   0.00109(4)   0.00146(3)
   O1  0.01145(5)  0.01012(5)  0.00722(4)  -0.00099(4)  -0.00021(3)  -0.00113(3)
   O4  0.01148(5)  0.01029(5)  0.01277(5)  -0.00285(4)   0.00194(4)   0.00233(4)
   N2  0.00817(5)  0.00878(5)  0.01170(5)  -0.00117(4)  -0.00033(4)  -0.00192(4)
   N1  0.01090(6)  0.01011(6)  0.00859(5)  -0.00300(4)   0.00051(4)  -0.00124(4)
   C1  0.00806(5)  0.00717(5)  0.00748(4)  -0.00074(4)  -0.00002(4)  -0.00033(4)
   C5  0.00748(5)  0.00775(5)  0.00645(5)  -0.00072(4)   0.00038(4)  -0.00012(4)
   C6  0.00918(6)  0.00921(6)  0.00668(5)  -0.00084(4)   0.00063(4)  -0.00008(4)
   C4  0.00833(5)  0.00832(5)  0.00844(5)  -0.00063(4)   0.00120(4)   0.00140(4)
   C2  0.01044(6)  0.00860(6)  0.00670(5)  -0.00274(4)   0.00001(4)   0.00023(4)
   C8  0.00938(6)  0.00873(6)  0.01127(5)  -0.00171(5)   0.00096(4)   0.00093(4)
   C3  0.01066(6)  0.00900(6)  0.00728(5)  -0.00299(5)   0.00020(4)   0.00025(4)
   C9  0.00904(6)  0.00942(6)  0.00754(5)  -0.00119(4)   0.00065(4)   0.00095(4)
   C7  0.00874(6)  0.01018(6)  0.00799(5)  -0.00003(5)  -0.00043(4)  -0.00186(4)
   H1  0.015(4)    0.007(4)    0.026(4)    -0.006(3)     0.003(3)    -0.005(3)
   H2  0.037(3)    0.025(3)    0.020(2)    -0.021(3)     0.006(2)     0.003(2)
   H6  0.038(3)    0.032(3)    0.016(3)    -0.021(3)     0.006(2)     0.005(2)
  H10  0.027(3)    0.021(3)    0.017(2)    -0.004(2)     0.000(2)    -0.001(2)
   H3  0.047(3)    0.023(3)    0.020(3)    -0.016(3)     0.004(2)    -0.001(2)
   H7  0.040(3)    0.032(3)    0.012(2)     0.003(3)     0.001(2)     0.000(2)
   H9  0.035(3)    0.020(3)    0.026(3)    -0.011(2)     0.007(2)     0.004(2)
   H4  0.039(3)    0.013(3)    0.020(3)    -0.007(3)    -0.001(2)     0.003(2)
   H8  0.021(3)    0.017(3)    0.025(3)    -0.009(3)     0.002(3)    -0.003(2)
   H5  0.033(3)    0.019(3)    0.017(3)    -0.002(3)     0.004(2)    -0.004(2)

# NOTE: Cartesian 9Nx9N covariance matrix in BOHR units
# The order of the variables (per atom) is as follows:
# . Elements 1-3: positions: x y x
# . Elements 4-9: 2nd order ADPs:
#      U 11 22 33 12 13 23
# . Elements 10-19: 3rd order ADPs (if refined):
#      U 111 222 333 112 113 122 223 133 233 123
# . Elements 20-34: 4th order ADPs (if refined):
#      U 1112 1113 1222 2223 1333 2333
#        1122 1133 2233 1123 1223 1233
# . Matrix is output in (fortran) column order


# ===========
# Reflections
# ===========

_diffrn_radiation_wavelength        0.353200

_shelx_F_calc_maximum               91.559423

_reflns_d_resolution_high           10.854359
_reflns_d_resolution_low            0.400036
_reflns_limit_h_max                 18
_reflns_limit_h_min                 -18
_reflns_limit_k_max                 13
_reflns_limit_k_min                 -13
_reflns_limit_l_max                 27
_reflns_limit_l_min                 0
_reflns_number_gt                   13821
_reflns_number_total                13821
_reflns_threshold_expression        'F>0 & F/u(F)>4.0 & |F_calc|>10^-3'

_reflns_special_details
;
* Specify symmetry and Friedel pair averaging *

. Only reflections which satisfy the threshold expression
  are listed below, and only they are considered observed,
  thus the *_gt, *_all, & *_total data are always the same
;

# ============
# Bond lengths
# ============

loop_
 _geom_bond_atom_site_label_1
 _geom_bond_site_symmetry_1
 _geom_bond_atom_site_label_2
 _geom_bond_site_symmetry_2
 _geom_bond_distance
 _geom_bond_publ_flag
   O3  .   C1  .  1.2446(2)  yes
   O2  .   C4  .  1.2956(2)  yes
   O1  .   C1  .  1.2884(2)  yes
   O4  .   C4  .  1.2366(2)  yes
   O2  .   H1  .   1.235(9)  yes
   O1  .   H1  .   1.194(9)  yes
   N2  .   C8  .  1.3557(2)   yes
   N2  .   C7  .  1.3573(3)   yes
   N1  .   C5  .  1.3392(2)   yes
   N2  .   H8  .    1.063(6)  yes
   N1  .   H4  .    1.025(5)  yes
   N1  .   H5  .    1.031(5)  yes
   C1  .   C2  .  1.5009(2)   yes
   C5  .   C6  .  1.4239(2)   yes
   C5  .   C9  .  1.4252(2)   yes
   C6  .   C7  .  1.3708(3)   yes
   C4  .   C3  .  1.5008(2)   yes
   C2  .   C3  .  1.3481(3)   yes
   C8  .   C9  .  1.3735(3)   yes
   C6  .   H6  .    1.076(5)  yes
   C2  .   H2  .    1.109(5)  yes
   C8  .   H9  .    1.099(5)  yes
   C3  .   H3  .    1.092(5)  yes
   C9  .  H10  .    1.097(5)  yes
   C7  .   H7  .    1.103(5)  yes

# ===========
# Bond Angles
# ===========

loop_
 _geom_angle_atom_site_label_1
 _geom_angle_site_symmetry_1
 _geom_angle_atom_site_label_2
 _geom_angle_site_symmetry_2
 _geom_angle_atom_site_label_3
 _geom_angle_site_symmetry_3
 _geom_angle
 _geom_angle_publ_flag
   O3  .  C1  .   O1  .     122.848(17)  yes
   O2  .  C4  .   O4  .     123.499(17)  yes
   O3  .  C1  .   C2  .     116.637(14)  yes
   O2  .  C4  .   C3  .     118.943(17)  yes
   O1  .  C1  .   C2  .     120.508(16)  yes
   O4  .  C4  .   C3  .     117.558(16)  yes
   O2  .  H1  .   O1  .        175.8(6)  yes
   N2  .  C8  .   C9  .     121.406(17)  yes
   N2  .  C7  .   C6  .     121.320(15)  yes
   N1  .  C5  .   C6  .     120.938(15)  yes
   N1  .  C5  .   C9  .     121.538(15)  yes
   N2  .  C8  .   H9  .        116.1(3)  yes
   N2  .  C7  .   H7  .        116.2(3)  yes
   C1  .  O1  .   H1  .        110.7(3)  yes
   C4  .  O2  .   H1  .        112.5(3)  yes
   C8  .  N2  .   C7  .     120.594(16)  yes
   C5  .  N1  .   H4  .        119.4(3)  yes
   C5  .  N1  .   H5  .        120.6(3)  yes
   C8  .  N2  .   H8  .        120.6(3)  yes
   C7  .  N2  .   H8  .        118.8(3)  yes
   C1  .  C2  .   C3  .     130.655(15)  yes
   C5  .  C6  .   C7  .     119.675(16)  yes
   C5  .  C9  .   C8  .     119.476(15)  yes
   C6  .  C5  .   C9  .     117.524(15)  yes
   C4  .  C3  .   C2  .     130.342(16)  yes
   C1  .  C2  .   H2  .        112.8(3)  yes
   C5  .  C6  .   H6  .        120.9(3)  yes
   C5  .  C9  .  H10  .        120.4(3)  yes
   C6  .  C7  .   H7  .        122.5(3)  yes
   C4  .  C3  .   H3  .        112.4(3)  yes
   C2  .  C3  .   H3  .        117.3(3)  yes
   C8  .  C9  .  H10  .        120.1(3)  yes
   C3  .  C2  .   H2  .        116.6(3)  yes
   C9  .  C8  .   H9  .        122.5(3)  yes
   C7  .  C6  .   H6  .        119.4(3)  yes
   H4  .  N1  .   H5  .        119.8(4)  yes
